!Agilent N9923A: A.05.17
!Date: Sunday, 01 January 2006 12:48:15
!Model: N9923A
!Serial: MY50371189
!CHECKSUM:0108742152
!Correction: S11(ON Q)S21(ON Q)S12(ON Q)S22(ON Q)
!S2P File: Measurements:S11,S21,S12,S22:
# Hz S DB R 50
500000000	-45.2256301812803	84.8341770359999	-0.180103251819879	-176.622196979033	-0.171042909326242	-176.687758610131	-42.2558518936511	56.065287468737	
502500000	-45.0339722879912	80.1225951423051	-0.180714725153221	178.903226735437	-0.171435850471411	178.839178613793	-42.5944021365552	56.0331883704583	
505000000	-44.9544673006208	75.3417780654807	-0.181134360106321	174.425791302734	-0.172236908063753	174.365083183332	-42.9639615529248	56.8301914764962	
507500000	-44.9818007339743	70.4857759824255	-0.1813024805689	169.949468432846	-0.172734537099686	169.890623717593	-43.3132753631767	57.9540873752932	
510000000	-45.0393059206311	66.1101672900187	-0.181852309334656	165.474195314004	-0.173316530059256	165.416258347583	-43.6409166091885	59.0233158688156	
512500000	-45.1333094172874	62.1190281183227	-0.182462719389042	160.996134991507	-0.173866215074747	160.937060033834	-43.9263726118585	61.2776360947879	
515000000	-45.3208447605596	57.5966435066487	-0.182860897018984	156.518860708931	-0.174518939060329	156.456400893934	-44.1854370249803	63.2703665956252	
517500000	-45.4839071567389	53.967448037212	-0.183095725209634	152.038478503248	-0.174976720011774	151.979343936568	-44.3719362481575	65.6366281171507	
520000000	-45.6951884590537	50.2884129660779	-0.183569966638371	147.560058481515	-0.175549719757881	147.499043006745	-44.4257065244323	68.1121165708693	
522500000	-45.9797162590835	47.1156252351438	-0.184305944855388	143.079763061881	-0.175632752750825	143.022326716377	-44.4623802270251	69.9250113828744	
525000000	-46.5145748429373	44.3358189498796	-0.184793406316233	138.600232842424	-0.176231442399045	138.544286699141	-44.399285845054	71.8397541923454	
527500000	-47.014967406814	41.9081162876509	-0.185364702335111	134.119350023115	-0.1769252467608	134.062998394518	-44.2921976116162	73.8851320446175	
530000000	-47.3810491943954	39.2064295142273	-0.18572836845777	129.639591141923	-0.177655074972586	129.585832927801	-44.228158670472	75.2411040578913	
532500000	-47.8712312413924	37.3681239581208	-0.186189382431664	125.161457572181	-0.178021481331468	125.106409338202	-44.129926377703	75.9047987906461	
535000000	-48.3957427724574	35.1143374818982	-0.186872394601093	120.680581278378	-0.178422465414897	120.628010248216	-44.0381911990047	76.3830923430206	
537500000	-48.9737112962501	32.7401195313394	-0.187105990791284	116.204355090807	-0.178795361918327	116.149193791512	-43.9834221584942	76.179271001504	
540000000	-49.6808396573204	31.649791354589	-0.187360444101774	111.72662421319	-0.179553077002725	111.67163098233	-43.9589684460751	75.4332991290407	
542500000	-50.2222623585179	31.1968872514737	-0.188204235711927	107.251747016156	-0.179887821893958	107.196567127712	-43.9985839153897	74.8601772420767	
545000000	-50.7505936214866	30.7816995283382	-0.188498344059984	102.774876354957	-0.180352762855887	102.721277795105	-44.0912870924928	73.9058754400766	
547500000	-51.2844649260365	31.1421605260072	-0.189059853027467	98.2986901331046	-0.180688802238434	98.2483313705344	-44.1758493396668	72.8939380198837	
550000000	-51.8705596141631	32.1790986534967	-0.189576577360857	93.8255458701942	-0.181277531243017	93.7771915094224	-44.4131657038015	71.5347683941302	
552500000	-52.3104608944458	33.0815884526839	-0.189702966930316	89.3511566787006	-0.181538817113167	89.3014123047157	-44.6599370271593	70.0563067183626	
555000000	-52.5248833354947	35.2634572639183	-0.190136039770409	84.8741147199102	-0.182624944971776	84.8281121675066	-45.0477913354456	68.856378060818	
557500000	-52.6561950317936	38.5800775376508	-0.190907425308944	80.3984542285375	-0.183258056552095	80.3513627213266	-45.5446819611319	67.5338136883064	
560000000	-52.7462011795281	40.9135076722852	-0.19123018397466	75.9202658583688	-0.183359492965762	75.8732773224165	-46.0902342785555	66.5560778359527	
562500000	-52.6065727378101	42.3164784792871	-0.191847013524499	71.4425399802305	-0.183811820942439	71.3948241557535	-46.710313487629	64.3894393823378	
565000000	-52.5390626590227	43.095691491961	-0.192237017665632	66.9631865011239	-0.184181345926206	66.9173384244714	-47.4939969873136	62.9525713503791	
567500000	-52.3108936588049	44.0446011499519	-0.192948066219908	62.4839591988565	-0.184989892714456	62.4386445104983	-48.4923422332185	62.3225044028963	
570000000	-52.011008379518	44.5238642275114	-0.193401375027793	58.0047149460129	-0.185802106380195	57.9590379934674	-49.5949222465443	62.7016115939014	
572500000	-51.5129308530366	43.4910576502319	-0.194027517762886	53.5251317697521	-0.185987749002524	53.4797773870213	-51.2055524001343	64.2534953444578	
575000000	-51.1248878606354	41.433717597568	-0.194739116118597	49.0437991202554	-0.18655937783862	49.001597550467	-53.2256494167031	70.2993705458671	
577500000	-50.7665293602258	39.8360684703038	-0.19507689273523	44.5646127297126	-0.187400991743653	44.5209925892715	-55.46277491717	79.1776374469576	
580000000	-50.1854619105769	37.8203950201575	-0.195501578892376	40.0854056679622	-0.188329910117245	40.0407593786764	-57.4804538493779	98.2804694706803	
582500000	-49.8769917592173	35.3497611567246	-0.196386069317649	35.6062140631091	-0.188657426343779	35.5609676844085	-57.7021943290391	125.894501434374	
585000000	-49.5433646966361	33.0248792637711	-0.196575841101121	31.1257045622855	-0.189377805017192	31.0821786596693	-55.5672968248743	147.100191527751	
587500000	-49.3279768707528	29.8143609774501	-0.197098514275836	26.6492175720978	-0.189601540900329	26.6037695472458	-53.1881784928267	159.970325735917	
590000000	-49.0044187951031	27.3232982947937	-0.197539460887693	22.1717191832401	-0.190421160616998	22.1280058084459	-50.879012168476	164.650495867414	
592500000	-48.7513513019323	23.7859172362814	-0.197906216039297	17.6942530694279	-0.190814503577003	17.6520233386201	-48.8570616993281	166.648017599762	
595000000	-48.4200072321466	20.4366758908919	-0.198029696478521	13.2185016804115	-0.191740930512935	13.1755149205139	-47.3100568759021	166.084296951622	
597500000	-48.1956666021268	17.2219711524491	-0.198743223646691	8.74272849728492	-0.19179937922648	8.70207137342338	-45.9681885690168	164.399527516903	
600000000	-47.9122006467948	13.1942023573985	-0.198788699464008	4.26967788841652	-0.1925166452456	4.23101535197989	-44.8142487838697	162.365063678346	
602500000	-47.4859998309287	10.0969240095945	-0.199748737463985	-0.204725799409207	-0.193039367943168	-0.243359965992383	-43.8797629756934	159.822694653223	
605000000	-47.063621823899	7.11875509179366	-0.200461803635719	-4.6808076152905	-0.193952517254068	-4.71906671636889	-43.00825393007	156.591351191004	
607500000	-46.8516451910986	4.07489342146347	-0.200755462115982	-9.15760987919174	-0.194868754622758	-9.19338701727662	-42.3000102376036	153.682743197569	
610000000	-46.4989141734536	0.692300332691653	-0.201575225204882	-13.6357069258461	-0.195232835878111	-13.6687540792535	-41.6546780154987	149.80237181431	
612500000	-46.3004813491553	-2.34817740980804	-0.202171962156938	-18.1119261474026	-0.195589303764342	-18.145249732883	-41.1188220946094	146.240015878629	
615000000	-46.0144012542251	-5.81008829526029	-0.203140235266757	-22.5899263107167	-0.196388844078806	-22.6216039060721	-40.5745883553417	142.363301720113	
617500000	-45.6834979819047	-8.44179146661474	-0.20409657179665	-27.0673609401583	-0.197268404636186	-27.0998098943852	-40.1521553020749	138.164335071386	
620000000	-45.4279368285513	-11.9652150075054	-0.20439119299765	-31.5483909486886	-0.19806824093579	-31.5757359755018	-39.8203583539909	133.862226964553	
622500000	-45.1897683454604	-14.8408276531898	-0.205067273715593	-36.0268104890185	-0.198455113051952	-36.0568961794698	-39.5601958384952	129.614776102677	
625000000	-44.9281139066132	-17.9473631147874	-0.205367675536656	-40.5043034055275	-0.199103725453871	-40.5353725112462	-39.4081338771828	125.103323268772	
627500000	-44.6842891804771	-21.2022877638548	-0.206014279102147	-44.9857010497511	-0.200075366213716	-45.0149794001716	-39.2617657380808	120.43779216821	
630000000	-44.4769053637448	-24.4451391759014	-0.206945579964519	-49.4656618007997	-0.200518001015418	-49.4944576094767	-39.1996921231374	115.322013210011	
632500000	-44.3143334692284	-27.3362271253793	-0.207005846819342	-53.9424093848429	-0.200836162910705	-53.9716840254763	-39.1385234823215	111.03940292026	
635000000	-44.168946851071	-29.8398292345492	-0.207160581764817	-58.4210774136893	-0.20108841756745	-58.4507869807266	-39.1981598773653	106.535378373985	
637500000	-44.0615215522143	-32.8858015142068	-0.207934223027706	-62.8991625223669	-0.202325054360773	-62.9287205239344	-39.2613521178933	101.667231633017	
640000000	-43.882286302717	-35.3419874010363	-0.208838536070996	-67.3737622449131	-0.203135381190195	-67.4061435937854	-39.3961977493637	96.6107508240108	
642500000	-43.7799172265915	-38.4608015050841	-0.209155882381631	-71.8515195034533	-0.203706042429694	-71.883843821732	-39.6287145921108	91.7612155959599	
645000000	-43.7840966266618	-41.6454109668169	-0.209361583822581	-76.3295834638382	-0.203855717195673	-76.3594080272496	-39.9465190783142	87.0788870924978	
647500000	-43.871781348374	-45.0613228956513	-0.210393445563623	-80.8020809320964	-0.204196589850435	-80.8341062861642	-40.2961833883295	82.2946693136386	
650000000	-43.9328542180733	-47.2576149023257	-0.210730760304193	-85.2746482804777	-0.204956378187576	-85.3093050357606	-40.6989338172127	76.6158880930854	
652500000	-44.0764833841483	-50.5804885501861	-0.21123918866787	-89.7488270308899	-0.205661006744303	-89.7810147533255	-41.2197427751722	71.3645882254804	
655000000	-44.1667206327045	-53.1053293177068	-0.211996281879352	-94.2194137950688	-0.206675571569537	-94.2563012412405	-41.8270699961979	65.8328949588446	
657500000	-44.4186609348729	-55.3697315781429	-0.212614137431985	-98.6938048397	-0.20714162919808	-98.7296351766068	-42.5460940902801	60.4071436277701	
660000000	-44.6883850952597	-57.1654870202576	-0.213247203027732	-103.167078908822	-0.20766139558096	-103.207137864402	-43.3021840053241	54.4220667475012	
662500000	-44.9798840460098	-58.5626547497431	-0.213844990507327	-107.645120334495	-0.208162436971746	-107.683385379507	-44.2808250754494	47.6689079152682	
665000000	-45.4436028790224	-59.8246573338995	-0.214791316692141	-112.119643613945	-0.209128161129536	-112.160782149033	-45.4186621541875	40.5539521473076	
667500000	-45.8450133584747	-60.7653246358968	-0.215145705988621	-116.595986365756	-0.209440793908439	-116.64144788548	-46.8558980953057	32.7603222787563	
670000000	-46.4479819577137	-61.7683614453582	-0.215932226562263	-121.07530203913	-0.210024752613769	-121.120407975094	-48.6123127191907	24.3399403062605	
672500000	-47.13032598234	-61.8099692677169	-0.216408072834283	-125.55489458884	-0.210551606954876	-125.600128747459	-50.7514244435546	13.5018047584043	
675000000	-47.9191728307172	-60.2790560863712	-0.216831641847289	-130.034503372062	-0.211019983725341	-130.07964006298	-53.3861365175959	-2.5118117205217	
677500000	-48.7510564528979	-56.1332085703036	-0.217654436991726	-134.51381218513	-0.212230189289989	-134.559036387809	-56.5971502370287	-29.9757025438798	
680000000	-49.8049187795776	-50.9415404082849	-0.218040375114999	-138.991750501125	-0.212699403729406	-139.040201710871	-57.858911326595	-76.8028185390356	
682500000	-50.7324892300061	-42.9962937386387	-0.218976035335103	-143.468037533864	-0.213093403281144	-143.520405357429	-54.8353826753786	-116.413279942356	
685000000	-51.2041639292861	-32.1721208287316	-0.219343143103041	-147.948013121335	-0.213930807388038	-147.997360211343	-51.8094296094484	-138.088750807747	
687500000	-51.3065058384318	-19.0065302690983	-0.220188463102534	-152.425142129097	-0.214503964683	-152.475433343827	-49.1961491762769	-152.057201605353	
690000000	-50.5741973156469	-6.20167542326526	-0.220853661430919	-156.902745820131	-0.215310819195773	-156.954876745117	-47.0991129749683	-161.947845597437	
692500000	-49.2536405091239	3.6799114680274	-0.221968524982397	-161.379474559739	-0.215882684713888	-161.433021375305	-45.348710414462	-171.508076432651	
695000000	-47.7336564853663	10.7210595094845	-0.222365504925238	-165.855707476072	-0.216505192505617	-165.908842967254	-43.9443712216912	-178.894941379635	
697500000	-46.2796469128362	14.5645408510642	-0.222602015100438	-170.331747158131	-0.216270479300803	-170.38331605475	-42.6805016949878	173.843073157588	
700000000	-44.8546885696007	16.2385531938306	-0.223099023380182	-174.805261327847	-0.216800269300071	-174.85764611017	-41.5741900482555	166.847618110594	
702500000	-43.5791510891598	16.5576982205961	-0.223814892972979	-179.277122893365	-0.217406566772726	-179.333551648813	-40.6153821686013	160.215218940978	
705000000	-42.3839870084262	16.3543051200732	-0.224694817301996	176.247183645854	-0.218347449878694	176.194393300978	-39.7223969094545	154.087900963522	
707500000	-41.2810558480411	15.3502337904033	-0.225553195013074	171.769592501524	-0.21935943774391	171.717936285605	-38.9678885049757	147.698674027931	
710000000	-40.2970127916106	13.7431541458226	-0.226189754552195	167.290787449528	-0.220021987867394	167.239406995296	-38.2543006711145	141.601982201714	
712500000	-39.3767636379506	11.6483182718165	-0.226714126354447	162.810878256683	-0.220455187821324	162.760807004899	-37.6456699097195	135.577675283737	
715000000	-38.5408926548483	9.19447616785384	-0.22784881479721	158.331041762384	-0.221444084906043	158.2820683379	-37.1128345616682	129.666472623987	
717500000	-37.7356952270868	6.61070962859538	-0.228589665904815	153.849630790077	-0.221363385210064	153.804420668508	-36.612364747507	123.601001307343	
720000000	-37.0312262664699	3.87199627091558	-0.228825700968656	149.372223678752	-0.222168175979978	149.325287911037	-36.2060690877124	117.586622930989	
722500000	-36.4106197642631	1.03011734893971	-0.229811123342951	144.889598032273	-0.22320305772551	144.846364413515	-35.7841150707469	111.507453928496	
725000000	-35.8298008911578	-1.91791278009696	-0.230889105005895	140.410045789742	-0.223550269445792	140.365041760595	-35.3959678101131	105.616630109017	
727500000	-35.3234622414557	-5.3075376685012	-0.231263160442499	135.927890363898	-0.224406552397651	135.885522203078	-35.1093908104271	99.6069831926102	
730000000	-34.8458169599793	-8.65823023286659	-0.231968989496628	131.445542292504	-0.224933802991809	131.406910428701	-34.8264227890485	93.5123697819592	
732500000	-34.4204812957584	-12.0332311456782	-0.232387647385766	126.967655530923	-0.225752551000302	126.924595650212	-34.5967466432982	87.5847672424374	
735000000	-34.0554638943188	-15.4189033556492	-0.233251719204855	122.48825380641	-0.225912270919936	122.448571870707	-34.405093201902	81.703410600044	
737500000	-33.7102460260589	-18.9875333329118	-0.233673941633826	118.009495683276	-0.2266239105029	117.971240693749	-34.2325644787577	75.7469536070836	
740000000	-33.4542701079725	-22.5094434991665	-0.233884738795587	113.533490035188	-0.227090938330324	113.494656583399	-34.0937480873647	69.8068899946552	
742500000	-33.2002990904208	-26.2514116378585	-0.234626292125886	109.05357973869	-0.227518531816996	109.017841763781	-33.9682470157493	63.9880777040497	
745000000	-32.9894168287353	-29.8605237292168	-0.235467199973598	104.57809738608	-0.227687787006742	104.541730101235	-33.895885080539	58.1521343861281	
747500000	-32.8044048935126	-33.3376839571426	-0.235359542806429	100.103882380603	-0.22833570914436	100.073396976826	-33.8548055662147	52.3216535318808	
750000000	-32.677611085304	-36.9920188787528	-0.235788411464346	95.6330445430483	-0.228866266613349	95.6018932222065	-33.8541813472898	46.457509170586	
752500000	-32.6328307173856	-40.8144415010373	-0.236437036542264	91.1592566965126	-0.229022296369595	91.1297842454086	-33.8910747719788	40.4256865883095	
755000000	-32.6073415329469	-44.5632086563972	-0.237023673094726	86.6860667855037	-0.229771129271212	86.6627192223696	-33.9469655597093	34.5987722548881	
757500000	-32.6219840022891	-48.1460758774367	-0.237599602961871	82.2101771724084	-0.230231844698751	82.1897440229391	-34.067308352263	28.7358746593021	
760000000	-32.7130344578107	-51.7979634026947	-0.237502921333102	77.7337760001416	-0.23079467251175	77.714882498069	-34.213343429386	22.8266374362323	
762500000	-32.8316220328534	-55.3863843450739	-0.237853963731217	73.2577916912242	-0.231282346386495	73.2398791454009	-34.4210748163649	17.0701733666018	
765000000	-32.9967625016653	-58.8842914122559	-0.238336550637218	68.7790666164267	-0.231584557841772	68.7646067633489	-34.6771150486237	11.2535252823333	
767500000	-33.2288963290987	-62.6229712058441	-0.238268257530158	64.3027178073901	-0.232583926635319	64.2911381768495	-35.0150089602129	5.44713334802843	
770000000	-33.5549199246354	-66.051977370054	-0.238815355364881	59.8252486415607	-0.232716251402536	59.8158372064073	-35.3628227959845	-0.4598711608646	
772500000	-33.9268231281313	-69.5154700277888	-0.239485871871908	55.3471922274479	-0.233106815864618	55.3403026975396	-35.7905281875976	-6.78038517949235	
775000000	-34.3685969377007	-73.18340103001	-0.239862554787094	50.8693325403681	-0.233594285872756	50.8633044304745	-36.3166998205255	-12.8831670799982	
777500000	-34.9128760407159	-76.7070682955619	-0.240296601273028	46.3912870312446	-0.234128756305747	46.3855696815107	-36.9273113412098	-19.1522064866527	
780000000	-35.5289455950631	-80.0547185671619	-0.240544831399562	41.9118725743182	-0.234622689031264	41.9072775869683	-37.6679342852809	-25.7458539796377	
782500000	-36.2885718531446	-83.0313408837781	-0.241203847243761	37.4363854157547	-0.234522916350714	37.4297586021114	-38.4949391596136	-32.1908697874605	
785000000	-37.2050637995019	-85.8141043734211	-0.241223008598985	32.9573781427927	-0.23513733522705	32.9492380839397	-39.5061887812841	-38.9533641467846	
787500000	-38.3347385768322	-88.3046743818404	-0.241691919618585	28.4792017898779	-0.235482295402438	28.4742149238482	-40.6660300567274	-47.231721362648	
790000000	-39.6819780574678	-90.2514744529025	-0.242127109883199	24.0051058880466	-0.236052331030381	23.9968718632016	-42.122580101532	-56.2663894798297	
792500000	-41.3051648017979	-90.7829951830845	-0.24218562559553	19.5276134296672	-0.235993492292342	19.5183486608776	-43.988702033961	-67.1529294065411	
795000000	-43.5224780305568	-88.8582618643226	-0.242127691529872	15.0539938012435	-0.236106866359229	15.0403629539909	-46.2559832107197	-82.3540110574086	
797500000	-46.1750192525085	-83.1070766070197	-0.243135007484878	10.5765185855835	-0.237818352772972	10.5627515085738	-48.71162361917	-105.112560900298	
800000000	-49.6435799457832	-66.5515032560553	-0.246687674492275	6.10307423435524	-0.240449212134842	6.08713378810261	-50.1718202262492	-138.821713619479	
802500000	-50.8246021171724	-24.8138182765809	-0.243047478395439	1.60897150195359	-0.236928446211499	1.5930378089605	-49.9049686580442	-178.552058913575	
805000000	-48.1152490010502	6.21207441830766	-0.244217027681211	-2.86667709351794	-0.237586287534844	-2.88566266432153	-46.6753446493785	154.422674835482	
807500000	-44.5586276571616	18.2455483663503	-0.2452037656255	-7.34218688987837	-0.238430721919571	-7.36070797582862	-44.2543581437565	137.241946894421	
810000000	-41.8424778192511	21.4806382760893	-0.243119315453871	-11.8361781258433	-0.237098454228092	-11.8475978159645	-42.0943172065493	125.175521939539	
812500000	-39.6874503830151	22.2845564064569	-0.246334156435011	-16.3000978797164	-0.240120595291215	-16.3189314717257	-40.2425373649206	116.571596570941	
815000000	-37.9152142386895	21.0992003699796	-0.247873609104306	-20.7812837352876	-0.23933073030499	-20.7983791503424	-38.6764385668222	108.348782546278	
817500000	-36.4589774788719	18.8067503359819	-0.247475026170289	-25.2579348684709	-0.24173694963721	-25.2786525366039	-37.3949448514672	101.519921526765	
820000000	-35.1794671470655	16.2853826510411	-0.247923346247306	-29.719878520454	-0.242908700177263	-29.7540867082745	-36.2244359432258	95.0295733829105	
822500000	-34.1361850969084	12.8944397781687	-0.249283941198076	-34.2144860938499	-0.242906464853214	-34.2402879749317	-35.2607987030046	88.7473685842821	
825000000	-33.2410728277605	9.42138358818882	-0.252103997472748	-38.6812958813895	-0.242955671594472	-38.7289767928576	-34.3804006323122	82.9034632600709	
827500000	-32.3999178176221	6.01232427700829	-0.251295326755112	-43.1694192700654	-0.245028492036004	-43.1965002519157	-33.6048622423921	77.2651041552181	
830000000	-31.7044948330791	2.32888424281664	-0.253767885571433	-47.6540723698979	-0.245969679797141	-47.6800161353544	-32.9729394107364	71.8608477370456	
832500000	-31.0699067962499	-1.49015019685625	-0.253002631113117	-52.1244959878485	-0.247044184942349	-52.1594176163312	-32.3490052369968	66.5831129790782	
835000000	-30.4990391598008	-5.19827048864876	-0.255825470247054	-56.6193630428509	-0.246548382245621	-56.6320660408154	-31.8565694446434	61.1348880659434	
837500000	-30.0510235864752	-9.16829262378084	-0.254806617055525	-61.0813911626201	-0.248220765861025	-61.1135818260414	-31.3811007108117	56.0094475432238	
840000000	-29.6275064591367	-13.1270626564115	-0.25411039028703	-65.5542226692505	-0.248974778049291	-65.5952383097615	-30.9680214703921	50.9143606043503	
842500000	-29.2821205216442	-17.1769380084829	-0.255773136782162	-70.0234555774208	-0.249456447270819	-70.0653290722403	-30.6496487704621	45.9285332320885	
845000000	-28.956750573455	-21.2698174513594	-0.260444121009102	-74.5256095233909	-0.24914789877895	-74.5241634390244	-30.3669659972506	40.6560214059428	
847500000	-28.7430056670341	-25.3026869106224	-0.256699665987643	-78.9768788193866	-0.250647230057552	-79.0058454198844	-30.1048859994814	35.9713383225964	
850000000	-28.5555234834956	-29.319434548065	-0.256737496290544	-83.437019134982	-0.249285309225028	-83.471867075546	-29.9201339757134	30.9983404430847	
852500000	-28.4080850347221	-33.58327593902	-0.258269672205413	-87.9142462618273	-0.252297905633849	-87.9485655849951	-29.7673159319984	26.0875714596549	
855000000	-28.3184695936489	-37.566835415458	-0.25551303737318	-92.3838967224767	-0.252629137808625	-92.4200404269192	-29.6488359784555	21.3477144488364	
857500000	-28.2753599725954	-41.9364574577842	-0.258951337620918	-96.8553016509316	-0.252891044920575	-96.8915179547762	-29.6173065205515	16.6198345714622	
860000000	-28.285525884571	-46.2034755044472	-0.261775847708798	-101.332614452554	-0.256267916344428	-101.365488571469	-29.5933450238575	11.7194609489156	
862500000	-28.3446045086935	-50.3218508979449	-0.260014361325665	-105.804077488629	-0.25362185994027	-105.836806796985	-29.655657001541	7.11430860221756	
865000000	-28.4408790241269	-54.4449661446608	-0.258044342419803	-110.287674535132	-0.254470847006908	-110.299711757747	-29.750548000247	2.62987090342094	
867500000	-28.6123585447117	-58.6782144475494	-0.260938350208127	-114.75749807624	-0.254927683728375	-114.785979989199	-29.8701798621494	-2.07953656468894	
870000000	-28.8273988269284	-62.8360284155987	-0.25951295508155	-119.240565566617	-0.253279346495155	-119.268526957927	-30.0640231833799	-6.54821203444602	
872500000	-29.1079646103521	-67.1635892359871	-0.262084037919874	-123.709344607767	-0.255293604609735	-123.737651397579	-30.3224188776694	-11.1786419802037	
875000000	-29.4471261831272	-71.3974162417045	-0.262144386777691	-128.19253482716	-0.256013366267774	-128.210603616674	-30.6100446559108	-15.5824286432402	
877500000	-29.838324112505	-75.5700479040019	-0.262556700738551	-132.6689306784	-0.256493134183396	-132.693374262413	-31.0049748932869	-20.0556385115905	
880000000	-30.3296182829178	-79.7629533085593	-0.263133127059775	-137.137572907941	-0.257072016223145	-137.163012190862	-31.4683633992633	-24.5024408724606	
882500000	-30.9018711771232	-83.8416206827894	-0.262504974394104	-141.627667766984	-0.256753441384482	-141.650725038423	-31.9804356968139	-28.5164148608435	
885000000	-31.6073495704102	-87.9187476011009	-0.261141363066327	-146.088669588102	-0.25904190625582	-146.124166846796	-32.6022131525976	-32.5772279623132	
887500000	-32.3669769264053	-91.9356499380589	-0.262560983206314	-150.579365081296	-0.256359621385968	-150.60120705654	-33.3175808637368	-36.4666368560161	
890000000	-33.2593981023718	-95.8578634860052	-0.263519614135823	-155.065516723916	-0.25816932608786	-155.086989092798	-34.1578335763102	-40.0359709886085	
892500000	-34.3765835302634	-99.9330362693648	-0.262861798311587	-159.537745050452	-0.257290981714831	-159.554738431022	-35.1967822456465	-43.4163369608263	
895000000	-35.691666817965	-103.460089934053	-0.261295553495582	-164.01144483971	-0.258718286565451	-164.031763676936	-36.3484607542644	-46.3455716950446	
897500000	-37.3143207734755	-106.962897610984	-0.264673418862313	-168.490431160852	-0.258576844407208	-168.510096494045	-37.8063103687942	-48.4960743274091	
900000000	-39.4512190178938	-109.628539051106	-0.263372201116117	-172.969312868555	-0.257618952226977	-172.986410444183	-39.579205449878	-49.1289707359585	
902500000	-42.2115561232576	-111.376889747515	-0.265198418601812	-177.444633187205	-0.259112787350539	-177.462038500927	-41.6984541217574	-48.0520498633383	
905000000	-46.4296344734994	-109.946028578415	-0.264004253701715	178.064839549609	-0.259560997776674	178.061078180174	-44.4900187920274	-42.9249802928952	
907500000	-53.5984101360982	-91.1242266787557	-0.265922692678999	173.596585166927	-0.260647666715626	173.587799642313	-47.4513889073996	-26.8536685652342	
910000000	-54.433591362723	1.52369215703498	-0.267336616880407	169.124231476471	-0.260843213419641	169.114402849445	-49.3625851503397	5.81362098234569	
912500000	-46.8122487277556	23.5366288668304	-0.268281024932582	164.640305515298	-0.26182646581771	164.630087573451	-47.2920054582618	37.6140457907951	
915000000	-42.5856729318094	25.994707491493	-0.268091324961851	160.167274409005	-0.262741346313586	160.154662200845	-44.2950840253386	51.5525937204484	
917500000	-39.7141085585196	24.8520855435699	-0.269901889014313	155.680263571479	-0.263511307912592	155.669193359852	-41.5613174095291	57.0755084231882	
920000000	-37.5909194569367	21.8962022268869	-0.271341243610406	151.19442456502	-0.265680498810391	151.188780995544	-39.5146632486232	57.7324649123236	
922500000	-35.937690382072	18.736431586325	-0.270941910677807	146.71877814659	-0.265927808266444	146.712401382234	-37.8945640303632	57.0123762044861	
925000000	-34.6666344942103	14.931741049793	-0.272035860600932	142.237238030924	-0.263427558765987	142.239134207239	-36.529052078489	54.7363216618086	
927500000	-33.5738357621188	10.8652689129121	-0.273575719046036	137.757908508861	-0.267309641598981	137.751251090285	-35.3730865895419	52.2648049076938	
930000000	-32.6775221216311	6.86400308516431	-0.272972799267785	133.273097481056	-0.267103948251401	133.270314630494	-34.4250058919745	49.3302520287395	
932500000	-31.9254616482619	2.6377071248382	-0.275081012591379	128.797661007865	-0.268580561094185	128.798282998131	-33.6312099102791	46.1152851437703	
935000000	-31.2592117520778	-1.74057286911087	-0.278028045076717	124.319863822998	-0.270054925296666	124.319539200295	-32.9791302584794	42.7455859923454	
937500000	-30.7559824050426	-5.84089908807276	-0.277245110177339	119.841571305666	-0.270950522521855	119.843404694893	-32.4195122925427	39.1454287123606	
940000000	-30.324291324651	-10.1569418230625	-0.277718669105922	115.371964963162	-0.271169708809655	115.374591706806	-31.9656915584395	35.4194489068043	
942500000	-29.9624913306295	-14.5376479487971	-0.278484150412047	110.891042325512	-0.272287987713269	110.891062130103	-31.5669614197789	31.8957200203338	
945000000	-29.7100811881741	-18.739713213437	-0.278239011805785	106.412316433956	-0.272774840983844	106.416015322121	-31.2581982608684	28.2760665811904	
947500000	-29.4894819659911	-23.2619958346648	-0.279279528880643	101.939986137261	-0.273478408048092	101.945219212809	-31.037503501138	24.6639665677608	
950000000	-29.3762021724722	-27.5648472911609	-0.280754361693786	97.4650238629545	-0.27459642029382	97.4713967166121	-30.8696145914862	21.0714057562577	
952500000	-29.3231366584629	-31.9892907010414	-0.280655527990004	92.9933606598627	-0.274401942700008	93.0014604883116	-30.7979959686275	17.6163946341444	
955000000	-29.3414310999206	-36.370484879603	-0.280848287958168	88.5329212077738	-0.27500816682741	88.5279394933127	-30.7720236883833	14.0413706744566	
957500000	-29.4183310190712	-41.019183775125	-0.281473386548041	84.0524244974426	-0.274883472603395	84.0587520567403	-30.8267735281023	10.5525034393374	
960000000	-29.5743081889368	-45.4938380338488	-0.280560139549313	79.5797133486291	-0.274587958019584	79.5848645074474	-30.9455720391767	7.22660790661746	
962500000	-29.7860378171442	-49.9393034737053	-0.28197128357782	75.1002772050282	-0.275758218057862	75.1067232432459	-31.1129400895051	3.87992286573798	
965000000	-30.1039416552298	-54.4781399653671	-0.282093919920896	70.6326835521665	-0.277835258828109	70.6385629966972	-31.3616175598449	0.761934161606537	
967500000	-30.4805298220448	-59.0055103374711	-0.282987015086416	66.1425339825964	-0.276588309274406	66.1495133644457	-31.6817032652791	-2.1482755154894	
970000000	-30.9660171771943	-63.7079723228339	-0.28389774752701	61.667399441636	-0.276779588152867	61.6766480951073	-32.0720203343126	-4.94492747840918	
972500000	-31.5450217354694	-68.3110372385588	-0.283700289813825	57.1831233890329	-0.2771374816638	57.1906565723061	-32.5384304625215	-7.41554355493558	
975000000	-32.2664274112764	-73.1796875566399	-0.280293595590206	52.7018382684828	-0.275109213208045	52.7127752125154	-33.1039864688031	-9.49636599964269	
977500000	-33.1122166486491	-77.9593558757553	-0.283509747017817	48.2220734787186	-0.276870789304871	48.2301939127501	-33.7711711442308	-11.4004493327056	
980000000	-34.1440338023902	-82.7822360970384	-0.284205978204565	43.737016934116	-0.278280034554935	43.7476427732395	-34.5596399490807	-12.3379645214594	
982500000	-35.3929090464232	-88.0939101323185	-0.284070224577632	39.2623226407852	-0.277586873477686	39.2721629450445	-35.4621784163032	-12.608849531162	
985000000	-36.994569937188	-93.9058689070049	-0.2827527351772	34.7731680491269	-0.276337153485264	34.7805024861016	-36.4013716472834	-10.9610184595966	
987500000	-38.9367469321258	-100.126432590785	-0.283685397649602	30.3011494315967	-0.277413475491036	30.3081576799531	-37.6033270420008	-9.04178505318229	
990000000	-41.6340345700526	-107.698535723116	-0.283128740983427	25.8207193766713	-0.277169360283045	25.8304866107527	-38.7809058130617	-4.12127752681206	
992500000	-45.561728332305	-119.369100368748	-0.28405775203573	21.3414338784602	-0.278273665267626	21.3518213574287	-39.9234053698694	3.97568621919271	
995000000	-51.8441080499114	-151.072154776443	-0.285042576856823	16.8430717568145	-0.276369461263351	16.8711483005658	-40.6236210035336	14.3365887225582	
997500000	-52.9004304927759	123.670122066222	-0.28536561410753	12.3806203822503	-0.27922667617751	12.3951233703753	-40.7170321945073	28.4988028718943	
1000000000	-45.9693013915909	88.5213147187134	-0.286413062078292	7.91002527669082	-0.279483253833181	7.92339660146672	-40.0879011521761	40.6016871261446	
1002500000	-41.7742018812332	75.4251463527656	-0.286556820708814	3.43144760564335	-0.279428505400338	3.44521648037053	-38.9182159366161	49.9980275130639	
1005000000	-38.955361174271	67.667184834737	-0.286883138349911	-1.05550474281953	-0.282813516964562	-1.03681094656606	-37.6455885928999	56.2606188706801	
1007500000	-36.7901646446874	60.9006441506807	-0.287819336286045	-5.52950410205317	-0.282344842621835	-5.51066239236428	-36.3429512997487	59.6093365065385	
1010000000	-35.1387476976693	55.2812807766767	-0.288363812180612	-10.0066923778219	-0.282784762896451	-9.98256489791934	-35.1476265866503	61.0757038048376	
1012500000	-33.7660750153124	50.0360933685219	-0.290027442285914	-14.4851971105992	-0.283517357590726	-14.4625738596251	-34.089460304609	61.3081209596317	
1015000000	-32.6087855930088	44.541522846185	-0.290508638198073	-18.9770360860455	-0.285180696284301	-18.9305457395208	-33.1389846679245	60.6300240450142	
1017500000	-31.6404381587612	39.8632261902913	-0.291210953133415	-23.4415922761316	-0.285088542718989	-23.4191668682286	-32.3143404618565	59.2796092989389	
1020000000	-30.8232649996417	34.9663249014298	-0.293862784135651	-27.9177160020777	-0.286967721550558	-27.9003761537282	-31.5697841112393	57.5526915210763	
1022500000	-30.1232882290223	30.2776717920722	-0.293712818608525	-32.3966771580036	-0.286993613232492	-32.371902189842	-30.9314008910549	55.5478726382421	
1025000000	-29.5260027007237	25.6104810959953	-0.294754996337461	-36.8821887571586	-0.289040708735193	-36.8545209794991	-30.3695888492009	52.937649765515	
1027500000	-29.0305455744935	20.9401308767135	-0.295909657189135	-41.3478853187438	-0.289230515968792	-41.323014834206	-29.870929109282	50.5308581062471	
1030000000	-28.5951992801876	16.4217519526213	-0.295431665781284	-45.8320323301442	-0.288553332304436	-45.795945948227	-29.4502306958301	47.8600878848812	
1032500000	-28.2400714198715	11.8743938009138	-0.297356145589739	-50.299936814976	-0.290801552494264	-50.2752188992677	-29.0834961901366	44.9591427244114	
1035000000	-27.958660175164	7.16210899373272	-0.298461361427381	-54.778277576926	-0.293816947668327	-54.7550705128655	-28.7956236450183	41.9738741669171	
1037500000	-27.7377509757267	2.78348398850495	-0.298388888253503	-59.2547885679948	-0.291789353511903	-59.2295587531899	-28.5421412694007	39.1423278155289	
1040000000	-27.5954032797487	-1.79434857639695	-0.299490309853493	-63.7190098183598	-0.293748700268241	-63.6978974676966	-28.3498746653137	36.1067458012807	
1042500000	-27.4828283683968	-6.24138557402344	-0.299781237413151	-68.2045213706767	-0.292582849678047	-68.1757961221869	-28.209586484551	33.1956329274686	
1045000000	-27.4678522148562	-10.6737929990483	-0.300007919693774	-72.6759320538634	-0.293511175391164	-72.6390889706336	-28.1194713841763	30.1735532845465	
1047500000	-27.463090279108	-15.155622712309	-0.300055942538385	-77.1444728640184	-0.293625404060864	-77.1172308966879	-28.0859186892938	27.1858667714033	
1050000000	-27.5272027423192	-19.5931181264483	-0.300752959824995	-81.6290852299648	-0.293455030301298	-81.5946828784533	-28.0675982354399	24.1857880740954	
1052500000	-27.6760366610058	-24.025300158045	-0.299975328659674	-86.0883691926329	-0.293861241076262	-86.0571362503532	-28.1404186610224	21.1980645841246	
1055000000	-27.8922196660798	-28.5699386774756	-0.30024931058824	-90.5589992760372	-0.291583110973568	-90.5302978613049	-28.2471547080631	18.2182845806198	
1057500000	-28.1338955176921	-32.8783889324875	-0.301047481949514	-95.030357406962	-0.294246368816802	-95.0053168774197	-28.4233418739872	15.4907662356221	
1060000000	-28.4712475221152	-37.177198130382	-0.299597076863536	-99.5011851889348	-0.294803835189809	-99.4746171318317	-28.6486126261459	12.7139975113731	
1062500000	-28.858834304534	-41.5871671691772	-0.300922315130638	-103.981063822936	-0.294348620685304	-103.953553831874	-28.9002916507508	10.0656534619438	
1065000000	-29.3281049317095	-45.9202093683212	-0.300662345270275	-108.465488353372	-0.294533399673667	-108.436342342085	-29.2328681430184	7.51799651532008	
1067500000	-29.8637808869576	-50.2142846104244	-0.301220335886292	-112.937275919661	-0.29412449444214	-112.910134390484	-29.6152264750602	5.15781428621371	
1070000000	-30.5263600076032	-54.660389259793	-0.302147975338028	-117.420835884914	-0.29298217780639	-117.39433085385	-30.0558131933661	2.68600107142004	
1072500000	-31.2747260948823	-58.6823211426875	-0.301527997545625	-121.895489551643	-0.295043385955359	-121.86475353367	-30.5813583322101	0.865092498745551	
1075000000	-32.1752056835334	-62.7993138621415	-0.301500102420484	-126.377744198965	-0.295081877343101	-126.338935213523	-31.1420104147613	-0.936826577738416	
1077500000	-33.2195506176149	-66.4471559141595	-0.301659235715614	-130.858942792711	-0.295727342066805	-130.828768072727	-31.8396282083743	-2.26317278059383	
1080000000	-34.4233544056669	-69.7593570599969	-0.300779888800684	-135.335329921173	-0.296420852985252	-135.293523831389	-32.5845959305538	-2.98201907585542	
1082500000	-35.9748537608566	-72.8874782636676	-0.301416803838894	-139.823103123779	-0.295236222207636	-139.786796400598	-33.4558943763583	-3.38834940078068	
1085000000	-37.8110933695513	-75.0652956631307	-0.303502735873656	-144.3046130029	-0.296411251012152	-144.274194891422	-34.3778480343311	-2.79646766306672	
1087500000	-40.2070726262032	-75.6816502127531	-0.302058634895284	-148.781112757483	-0.295433161605198	-148.749896069645	-35.4235355314625	-1.22385999949186	
1090000000	-43.4843385023354	-72.0079024760533	-0.303420337578421	-153.266506931544	-0.296475691149506	-153.250972086498	-36.5886231050666	1.95736972423766	
1092500000	-47.8097143543409	-58.0985504346266	-0.302622746149959	-157.738931320516	-0.296156537109001	-157.708210814778	-37.6484110559266	7.1200665609101	
1095000000	-51.2616289482338	-10.1458310831871	-0.303140635706243	-162.216984307955	-0.296050572650592	-162.187744482232	-38.6591954955831	14.1024709439349	
1097500000	-46.9740728747447	29.9162256891231	-0.303643200657624	-166.693014915117	-0.297813465875383	-166.6656330974	-39.375445267188	25.139520345222	
1100000000	-43.0428987235672	41.5655059754048	-0.301992522245113	-171.160721459421	-0.295113418688566	-171.125260061862	-39.6686129069225	36.6305579780141	
1102500000	-39.9306520569467	43.5148663672692	-0.305045298740512	-175.640945206992	-0.298872637089144	-175.618335441108	-39.2650536986783	49.0833898528185	
1105000000	-37.7064790263543	42.2730953963662	-0.306270536707972	179.878049885156	-0.300103586012998	179.898406302671	-38.4701926526245	58.5602469408647	
1107500000	-36.0470278254587	39.4857331176045	-0.306004468549708	175.402469069267	-0.300144021807049	175.422485900305	-37.4750792732561	65.9094737639526	
1110000000	-34.6451844296203	35.6613864899135	-0.309103290873078	170.927409486866	-0.305024350412114	170.941027338022	-36.3521850572583	70.393289245139	
1112500000	-33.5348803737979	31.7859732358517	-0.308365159206973	166.444952200531	-0.302178745840353	166.462973421627	-35.4296306391682	73.5019660129662	
1115000000	-32.6147177650014	27.47173766602	-0.309051184358363	161.96444839078	-0.303542021657958	161.989595844362	-34.5229087455103	75.1644457787631	
1117500000	-31.8160934446724	22.9169035335387	-0.309960473655158	157.489580387448	-0.304065179693843	157.509545073566	-33.6720403750196	76.3100139345471	
1120000000	-31.1409897393235	18.144906243879	-0.309620577077103	153.004250408155	-0.302690990394634	153.022494094246	-32.9130787304084	76.947945992851	
1122500000	-30.5887412501741	13.121425151222	-0.311766178104097	148.530043229391	-0.305916194371268	148.552261344913	-32.2519117986372	76.5806896721263	
1125000000	-30.0898801399561	8.07637172910498	-0.312281002466106	144.053728199061	-0.308136908534422	144.067767574951	-31.6345925369318	76.2488998898241	
1127500000	-29.7025776734403	2.85529016803378	-0.314017831665035	139.571906040475	-0.308462501604509	139.591517058144	-31.1132668977752	75.3650817604173	
1130000000	-29.3782545136318	-2.56006252062119	-0.315249560041512	135.100506333876	-0.309966727445796	135.120345562174	-30.6665795996317	74.4970256715497	
1132500000	-29.0956454085367	-8.02990836204227	-0.316584358958269	130.618270635642	-0.310154246269369	130.633899870173	-30.2181292637326	73.6545547044252	
1135000000	-28.8856027384621	-13.8148472670948	-0.3173120168434	126.13665197444	-0.310919257175148	126.156908092676	-29.842158949132	72.6695059868798	
1137500000	-28.7175710743899	-19.590869931969	-0.31705254110052	121.660024665021	-0.312230145981384	121.680632846605	-29.4986868034744	71.8143483082777	
1140000000	-28.5822788327214	-25.6567574924612	-0.318023739263614	117.177731267039	-0.312250648733111	117.196426315132	-29.1756095118772	70.5594398524785	
1142500000	-28.5116419352175	-31.8154791515001	-0.319177557031355	112.70769936773	-0.313250131849425	112.72844112725	-28.9302805275512	69.5482766080437	
1145000000	-28.4513669466172	-38.2371541113178	-0.319701343457291	108.234161480912	-0.315079083261774	108.258511077082	-28.6889842513291	68.6236617114288	
1147500000	-28.4497372568854	-44.8069681912338	-0.320628408908371	103.761569142262	-0.315095100974189	103.778932138723	-28.4772141863989	67.7221977343851	
1150000000	-28.4621012977152	-51.4085893840717	-0.321889996974364	99.2940400714138	-0.316188814948076	99.3099922548076	-28.259981112278	66.9811400835197	
1152500000	-28.4856580640627	-58.6442288824272	-0.321448776176902	94.8139131585324	-0.316301300741192	94.8319914952201	-28.0703267045694	65.8507979279566	
1155000000	-28.5232726316996	-66.0485181301952	-0.322875271593363	90.335173503932	-0.316305489372397	90.3500765983235	-27.8861431066415	65.0517864303352	
1157500000	-28.574250930432	-73.6486723232777	-0.322638500504488	85.8636039972743	-0.317527204228855	85.8786707806075	-27.7103333012686	64.2923704211997	
1160000000	-28.6346168205991	-81.5883041862156	-0.324156291805786	81.3756979274743	-0.31698949068126	81.3959299014753	-27.5559112050698	63.5050333016156	
1162500000	-28.679893781087	-89.5712077119673	-0.325020739876723	76.9091303500149	-0.319510842187241	76.9289263691133	-27.3670258271284	62.8635702617784	
1165000000	-28.698618374039	-97.8771495906188	-0.326622488107033	72.426701187397	-0.320911750514763	72.4409671423943	-27.2202945907278	62.2330108063389	
1167500000	-28.7210967545729	-106.451626346933	-0.327057445843441	67.9489595203381	-0.32058243654517	67.9713758126659	-27.0454070110821	61.5765153555512	
1170000000	-28.6972857557965	-115.0306246824	-0.326538269003211	63.4829168749182	-0.321070620594382	63.5067413981772	-26.8556075642107	60.8347756622571	
1172500000	-28.669387822563	-124.003933000652	-0.32884529900694	58.9907597409277	-0.321912402334983	59.0159329534053	-26.6967642223784	60.1417205091989	
1175000000	-28.5896292036026	-132.883689203293	-0.329626352971939	54.5111970933862	-0.322594229559602	54.5360662341327	-26.5159497507014	59.4356876654899	
1177500000	-28.4639896378602	-141.699313969601	-0.330149929113192	50.0336449337075	-0.323137514287334	50.0601721426871	-26.3351354001855	58.5686906694629	
1180000000	-28.327778790073	-150.5244080716	-0.333178816950602	45.5445385002942	-0.32617120008363	45.5672624484171	-26.1372999337398	57.7538300948475	
1182500000	-28.1056657085304	-159.149073317007	-0.331627776127068	41.074383069016	-0.324731967715506	41.1016196063031	-25.9445066977159	56.6779776982402	
1185000000	-27.8792416634111	-167.586655831444	-0.332848640766023	36.5952033546322	-0.325264242593011	36.6242113255813	-25.7482719134146	55.5344415369337	
1187500000	-27.6359648517066	-175.943997379998	-0.333235575806489	32.1204996670182	-0.326669552546369	32.1476441013311	-25.5544404412511	54.3447400194564	
1190000000	-27.3468333213122	176.021805119701	-0.331393063313917	27.6397777250549	-0.325032581265428	27.6726868522214	-25.3759199361102	52.9721511414745	
1192500000	-27.0892597073566	168.139157505359	-0.335174498421029	23.1639556084696	-0.328495207958898	23.1942281899387	-25.1809685257762	51.6128631465233	
1195000000	-26.8119502591565	160.595830420877	-0.335828875347301	18.6916046155614	-0.328953212926001	18.7218180918176	-25.0096714830981	50.0958073757424	
1197500000	-26.5569940349495	153.283095115664	-0.336742065718488	14.215372352595	-0.329988898421092	14.2471444640672	-24.8462760906479	48.4361807052564	
1200000000	-26.3016299456849	146.20879641034	-0.339401494128227	9.74833093372419	-0.331586201087188	9.78453268913183	-24.6779276401804	46.6057522039417	
1202500000	-26.0494206839634	139.388556785092	-0.338207536498716	5.27302925327733	-0.331315292976859	5.30815096873921	-24.5399116955432	44.7105543826462	
1205000000	-25.8193789959315	132.743218168072	-0.338729175524613	0.8020675550516	-0.332113340212199	0.841520787499846	-24.4091638218894	42.6627692508443	
1207500000	-25.5989693189054	126.269917285838	-0.339510837043793	-3.67080796203191	-0.33266379443041	-3.6342507076616	-24.2987011268966	40.5034381398029	
1210000000	-25.3993992618952	119.986743630891	-0.33911847961322	-8.1528187765136	-0.333691860837925	-8.10615196705551	-24.2051036281873	38.3264253375495	
1212500000	-25.2332852238318	113.894274247584	-0.341788069711585	-12.6188138171145	-0.33482749425295	-12.5761761016281	-24.1351303401001	35.8920746636496	
1215000000	-25.0903818974303	107.902491594046	-0.341861726263505	-17.0963736863446	-0.336293638651153	-17.051448758685	-24.0818474713266	33.451976003716	
1217500000	-24.973973355512	102.091587394241	-0.342993277457795	-21.5688942809078	-0.33630115491085	-21.5273762368622	-24.0365369812307	30.8971869864999	
1220000000	-24.8904931751257	96.3935881172989	-0.34585780726748	-26.0321218541931	-0.337156944741486	-26.0007949410615	-24.0215252755387	28.1930130898208	
1222500000	-24.8182037636703	90.7783648591893	-0.344207983361951	-30.5148130486856	-0.337293448034733	-30.4734069530594	-24.0306937582094	25.5849059939675	
1225000000	-24.7808181661256	85.3368311569082	-0.344119339251384	-34.9961778723979	-0.339159189576138	-34.9443309309347	-24.061519845627	22.8017008045837	
1227500000	-24.7633284255459	79.8786308605298	-0.344499269887898	-39.4638043108198	-0.338614227240339	-39.423572379489	-24.1249091312993	19.9309553244085	
1230000000	-24.7851528393734	74.5400776124895	-0.343916496940354	-43.9518413203516	-0.336926487376295	-43.8899111209554	-24.1879252955048	17.0757531299142	
1232500000	-24.832240525064	69.3262486529006	-0.345618999588518	-48.4139328710122	-0.338848692956501	-48.3662592394629	-24.3088638957218	14.1536062167045	
1235000000	-24.9106658521482	64.1367659074358	-0.344738229195573	-52.8859171687136	-0.338361954017215	-52.8356642599228	-24.4383979797733	11.1859834397953	
1237500000	-25.0185976940286	59.0317348153689	-0.344705638143071	-57.3638151343085	-0.338652521579044	-57.3152601398418	-24.6081669279632	8.1306198943398	
1240000000	-25.1458645691327	54.0440138060095	-0.344894423039984	-61.8231080350472	-0.341111848791958	-61.7884295237104	-24.8167521762975	5.06661185630221	
1242500000	-25.3423132231225	48.9414783332567	-0.344013542612595	-66.309533250678	-0.337388018589006	-66.2630897959202	-25.0216423823992	1.92364930792091	
1245000000	-25.5478546779068	43.9973753742256	-0.34305932833392	-70.7839278967636	-0.337708484930371	-70.7357290283288	-25.2625636545666	-1.24940777779319	
1247500000	-25.78133931901	39.0940167904364	-0.342371664538883	-75.250036298823	-0.336548988615692	-75.1994352070277	-25.555218576373	-4.42676550592837	
1250000000	-26.0599211147001	34.305706718591	-0.343935235182668	-79.7362312512228	-0.334423186434232	-79.6833888751449	-25.8722426339346	-7.83309003360352	
1252500000	-26.3625156119243	29.4951995452564	-0.342202463844428	-84.1912660307579	-0.335968791675085	-84.1410530026353	-26.2448418325857	-10.8923448916412	
1255000000	-26.7216815992512	24.784928580321	-0.341969572019058	-88.666764713225	-0.335749271578205	-88.6122336351266	-26.6434551468793	-14.152714123523	
1257500000	-27.1194532835476	20.0373771080535	-0.341379867443706	-93.1371864341881	-0.335956361207638	-93.0868286565377	-27.0840867973358	-17.4503213084391	
1260000000	-27.568942157262	15.3452717023662	-0.339592378787107	-97.6050857751339	-0.335950944363583	-97.5479310021946	-27.5862557088752	-20.5507681883062	
1262500000	-28.0703947172469	10.8307396027919	-0.340761765242925	-102.093239814798	-0.335550947513817	-102.041795579302	-28.1330757401751	-24.019325878343	
1265000000	-28.619928359602	6.3066913548309	-0.340275746253285	-106.570779086145	-0.335089024220416	-106.519355193712	-28.7374993294801	-27.34166075267	
1267500000	-29.2454460399685	1.86757550339039	-0.339906981085585	-111.050346846239	-0.334260520085005	-110.999548108234	-29.4094311696543	-30.6894055073806	
1270000000	-29.9289266258515	-2.37575849836141	-0.34202511273946	-115.535297752055	-0.335193240336066	-115.488987105685	-30.184830755597	-34.0662541096513	
1272500000	-30.6813283471451	-6.84691072428366	-0.33933222167494	-120.008112691759	-0.333251800734042	-119.953243624727	-30.9784149979419	-37.2540498741201	
1275000000	-31.537252994414	-11.1003866958623	-0.338956691458085	-124.486376703378	-0.333297148178636	-124.433121753509	-31.8944811379617	-40.5057077398473	
1277500000	-32.4944418229107	-15.0721786100947	-0.338132620840947	-128.965093306754	-0.333459388263228	-128.915281060796	-32.9425433696042	-43.6033296765422	
1280000000	-33.5870203164063	-18.9314342438538	-0.336122067164716	-133.452142891686	-0.331503014816044	-133.387856775803	-34.1206908527061	-46.7580160876118	
1282500000	-34.8109691801196	-22.286866320914	-0.337871201503931	-137.930912700603	-0.333323165796759	-137.882058590673	-35.5408912598445	-49.5809656118854	
1285000000	-36.2420049430458	-25.1869958385708	-0.338431164322112	-142.412339631599	-0.333410811163645	-142.361220271084	-37.1520454459934	-52.2017666208384	
1287500000	-37.9094249193329	-27.3638610764564	-0.338378024587	-146.894067962789	-0.333152360550481	-146.841493969792	-39.1291316922176	-54.6283251419391	
1290000000	-39.8953394333801	-28.7754094157697	-0.339752802068713	-151.367296945965	-0.334206945263619	-151.321879588864	-41.6674188146715	-55.1213706469173	
1292500000	-42.3950538720726	-27.5835720778256	-0.338495032304272	-155.851038150906	-0.33372034525638	-155.795184866905	-45.0353768702386	-55.0014199553276	
1295000000	-45.4717462426064	-20.9421696299902	-0.338589889277155	-160.33366944864	-0.33487876813188	-160.274298217034	-50.3618688761634	-46.3571262187351	
1297500000	-49.1330873729931	-1.0077784316779	-0.338533828189996	-164.805772350961	-0.334339480996152	-164.750784080718	-57.9507383733338	5.80968313737479	
1300000000	-49.9929656784938	37.0389632138572	-0.338467826719213	-169.288478233375	-0.334750747503144	-169.223303178434	-51.2690439770196	74.1903613151781	
1302500000	-47.3420041598268	65.2479989094267	-0.33999515822826	-173.761974572698	-0.335440326753627	-173.70218223477	-46.0799195464348	82.0163112585082	
1305000000	-44.1875991876211	76.0167761633262	-0.340090171684779	-178.237000143048	-0.335265636390137	-178.184373380799	-42.8409040173356	83.1717583491155	
1307500000	-41.7970224392132	79.0463698143604	-0.340221751104273	177.284452327013	-0.335907696477263	177.342035714942	-40.5709062116477	81.9095972415466	
1310000000	-39.9305332868855	78.9164052691152	-0.341576429295246	172.811039547163	-0.339080502778851	172.859081650795	-38.8897762230544	79.9171025009842	
1312500000	-38.4535177746357	76.5586202252875	-0.341490895072706	168.322976999207	-0.337690364823885	168.386437039619	-37.4465963655682	77.4667189954909	
1315000000	-37.2661603135502	73.4109878068708	-0.342328207749064	163.844154490238	-0.338461902263689	163.905798061201	-36.3457742141451	74.4455178022829	
1317500000	-36.2937853091797	69.907848212519	-0.343084938306142	159.364374192392	-0.33904300051423	159.430929706925	-35.4078112461206	71.4424895650508	
1320000000	-35.4890987057967	65.9317611956044	-0.343909317863548	154.874630788551	-0.336879015153643	154.949210568798	-34.6146255574174	68.0381047536549	
1322500000	-34.7958774588669	62.066033958935	-0.34445270244192	150.402246734226	-0.34032403193262	150.475443183971	-33.9869861852994	65.0420025963777	
1325000000	-34.1945238284687	57.8736797449184	-0.34490527356201	145.922383881261	-0.341007467764354	145.995957558498	-33.4362675805452	61.6198266136793	
1327500000	-33.7300291686846	53.4455037809142	-0.346125504286714	141.438803532107	-0.342142848040603	141.511354789855	-32.9915990551878	58.2789463200627	
1330000000	-33.2989267288786	48.9367833720276	-0.346522105083708	136.966371170357	-0.3446583101239	137.044778876438	-32.5913357077641	55.1318174718154	
1332500000	-32.9825817420632	44.3927547929196	-0.347332112670513	132.481058197881	-0.343081176129615	132.556133471844	-32.2852172817782	51.3757764579015	
1335000000	-32.715248470274	39.7491755552275	-0.348025903090409	128.004613809275	-0.343442748329196	128.07906136657	-32.014873936688	47.9051723785502	
1337500000	-32.5112006647598	34.8454607321638	-0.347892976634716	123.523866544172	-0.343248937858635	123.603441772314	-31.8003568344361	44.2872264350238	
1340000000	-32.3599270281615	29.9875647909394	-0.348943065677554	119.042204046703	-0.344055122334471	119.108896123304	-31.6556848423381	40.6270462895577	
1342500000	-32.2044791313505	25.0334609228472	-0.349199218922161	114.573535746901	-0.344823610746204	114.650448353062	-31.5064585195432	37.2390199765088	
1345000000	-32.112850864549	19.9299682369717	-0.350267485218329	110.097376892182	-0.345363336242072	110.179089807325	-31.4348726761781	33.5428207143554	
1347500000	-32.0715098037326	14.6345600400192	-0.350537514347835	105.621244306445	-0.346151808376622	105.703541998862	-31.4088086307848	29.9039435112323	
1350000000	-32.0567759421416	9.33675055696519	-0.350552269819739	101.153775773649	-0.344447095122577	101.244947827823	-31.384791560514	26.3031974099218	
1352500000	-32.1008859671534	4.15493779089662	-0.35094531047689	96.6788865982247	-0.34733130785049	96.7619535154921	-31.4482231895803	22.7275819314439	
1355000000	-32.1941653770444	-1.17602077201767	-0.352315799182537	92.2032778568398	-0.347974846502079	92.2858973322474	-31.5361583989037	19.0473559927054	
1357500000	-32.3082837313621	-6.74233977418656	-0.353285855529401	87.726954950827	-0.348279652303017	87.8091997479547	-31.6659302920245	15.3529168797908	
1360000000	-32.446196087816	-12.1675635594826	-0.354935615393428	83.2485702570203	-0.350633778709706	83.3344884763799	-31.8390947104221	11.8923227679833	
1362500000	-32.6441856034257	-17.8491124370899	-0.35481812803852	78.7753949536188	-0.349267395819414	78.8617450914512	-32.0322447094738	8.12865242136944	
1365000000	-32.8790000909886	-23.5427021536037	-0.355386250751068	74.3055642490731	-0.34993076331668	74.3825377381621	-32.2738493712929	4.48295454644969	
1367500000	-33.1474085426544	-29.4976215448937	-0.356007009978765	69.8189989255078	-0.349885457525093	69.9075263821078	-32.5671729909099	0.765216538639722	
1370000000	-33.4433159539278	-35.4138913443974	-0.354903961072249	65.340951904756	-0.349530577215892	65.427152642125	-32.9286553279196	-3.07016150278697	
1372500000	-33.7521454214883	-41.6450974160077	-0.356717446220806	60.8607192238172	-0.351140849318375	60.9502720785045	-33.2610787782217	-6.60762616849638	
1375000000	-34.1428931176213	-47.7436343809719	-0.356594529567644	56.3797250655159	-0.351774188276949	56.473610873754	-33.6995374281779	-10.3080632362846	
1377500000	-34.5414058692163	-54.3560989584616	-0.358053458997862	51.9027238854445	-0.351295670741552	51.9929564560477	-34.2070521817883	-13.8596275342816	
1380000000	-34.9910026870761	-61.0680299361803	-0.359362762321092	47.4271454376671	-0.352308523060931	47.5125839940707	-34.7284803307734	-17.3193586894575	
1382500000	-35.4713512797876	-67.7979509147877	-0.35827120383763	42.9456388465185	-0.352109463045211	43.0368644919929	-35.3981870854688	-20.8144228706329	
1385000000	-36.0187747933007	-74.8247302605789	-0.359688098451893	38.4670546411934	-0.35255001837151	38.5577667184625	-36.1235335376495	-23.9836985004673	
1387500000	-36.6465850867179	-82.5951719317016	-0.35897128421939	33.9882473819663	-0.35259593413862	34.0777936983877	-36.9712577711405	-27.2312423331292	
1390000000	-37.277228809574	-90.6092034931643	-0.358745576053909	29.5034635906206	-0.351701971755304	29.6016548063288	-37.9926748200455	-29.9249181796712	
1392500000	-37.96457827433	-99.561056733343	-0.359362945353421	25.0341132141415	-0.352121222230359	25.1221259379832	-39.0103039290565	-33.0023636460203	
1395000000	-38.7338525503821	-109.009597578515	-0.359473917941984	20.5622896489612	-0.352086973001295	20.6459725772301	-40.3284956953976	-35.3028147978272	
1397500000	-39.5785844417599	-119.223052466311	-0.360329048422992	16.0826527873113	-0.353409115670275	16.1688690262743	-41.8511411466352	-36.1355402711733	
1400000000	-40.3749747499627	-130.711444447664	-0.361415488735797	11.6139395747481	-0.355111560253268	11.6963915102801	-43.6912098390963	-36.0827610932788	
1402500000	-41.1199186915045	-143.978778160093	-0.361293973462487	7.13330091472118	-0.354426414298221	7.2183368401186	-46.0203043490184	-31.0971156674425	
1405000000	-41.6957020782685	-158.732627109204	-0.361484353434446	2.6559858710147	-0.355066517539983	2.73897212807333	-48.7233408813699	-20.0386914874432	
1407500000	-42.0495924908697	-175.173754271534	-0.362017057006604	-1.82043527556241	-0.354309267870494	-1.73297507985846	-50.725463570708	4.78134855022564	
1410000000	-42.1813985238241	168.349331166504	-0.361831290560777	-6.30688816113285	-0.353200526397706	-6.2227760425085	-50.0100634094124	35.0713567321568	
1412500000	-41.9209487629297	151.304386872107	-0.362604379794198	-10.7760038837857	-0.355545905644521	-10.6913269260958	-47.5566204893183	54.7647621296872	
1415000000	-41.3915990569936	135.405736697781	-0.363580933360571	-15.2593226447619	-0.355906434272714	-15.1723754875631	-44.9197260946752	62.4392567013734	
1417500000	-40.5644745433109	120.931433497587	-0.36412166851275	-19.7362910865685	-0.357379637095857	-19.6529999053741	-42.6535958090116	65.1796809447919	
1420000000	-39.6279627790395	108.043195603369	-0.36466216216979	-24.2080008423158	-0.357743872536789	-24.1237912374502	-40.7790607560284	65.2955450802368	
1422500000	-38.7524009202793	96.7281989880691	-0.364938111266887	-28.6981242040996	-0.358372839195573	-28.616288940514	-39.2836468698785	62.6206598975187	
1425000000	-37.8346362760416	86.1857719194537	-0.366706578795618	-33.1805520294402	-0.359011968989456	-33.1019136517757	-37.963722266029	59.9434336467399	
1427500000	-36.9430943415544	76.4790676208468	-0.366128256924799	-37.6635295105809	-0.359022795394289	-37.5764795509452	-36.812146130299	56.4871461446176	
1430000000	-36.0930281605129	67.8603962191458	-0.367566157851155	-42.153222596689	-0.361108074479259	-42.0626539311481	-35.8263295467317	52.7806864382936	
1432500000	-35.2839921164327	59.7111621925408	-0.367342582651613	-46.6211520232948	-0.36061593295096	-46.5366531416746	-34.9015819937647	48.6683367887529	
1435000000	-34.5335620694476	52.3388184095498	-0.369484018413721	-51.1008860293469	-0.361523265971673	-51.0115660314162	-34.1208925546663	44.5071514574373	
1437500000	-33.8650512665187	44.9587006593815	-0.368906353422633	-55.578404732551	-0.362422268183571	-55.4944027907584	-33.4099555461482	39.9748458220895	
1440000000	-33.219757963656	38.0619814915138	-0.368275032482136	-60.0482626475728	-0.362929856633258	-59.9707686912998	-32.7672283270317	35.3921824184695	
1442500000	-32.6043341078934	31.4974922989907	-0.370975009455457	-64.5355422861749	-0.364157197307664	-64.4500113844334	-32.1904436090578	30.9626991984629	
1445000000	-32.0651649395065	25.1061127288053	-0.371401711505575	-69.0101904042894	-0.364526809246839	-68.9190834442003	-31.6499827924544	26.322988360837	
1447500000	-31.5581206881886	18.8727583147191	-0.372356142395229	-73.4879425627736	-0.36554697538896	-73.3953034194953	-31.1776837522546	21.5634062657306	
1450000000	-31.0983812492298	12.9387681594445	-0.376297805015355	-77.9551192060927	-0.366432184279035	-77.8706277018611	-30.7376923082444	16.9977183137436	
1452500000	-30.6903238755162	7.13825155194948	-0.374621675695506	-82.4326017779087	-0.36862064577679	-82.3393148875709	-30.3809592636364	11.9366082645282	
1455000000	-30.3277018628387	1.50956075357997	-0.3750512246642	-86.9014308552956	-0.369733553090691	-86.8059905031507	-30.0556832812278	7.01516563349278	
1457500000	-30.0112087095133	-3.93907665396239	-0.376042883602994	-91.3790859902358	-0.369870988347042	-91.2809845152128	-29.7457921978292	2.1824700409931	
1460000000	-29.7209557870969	-9.34745869393331	-0.375020635301599	-95.8617325239021	-0.370432457528903	-95.7464051213763	-29.5179581266847	-2.81504653958492	
1462500000	-29.4684027664237	-14.8609898717507	-0.377576511740973	-100.324444435416	-0.37178971503014	-100.227295150571	-29.2618605924255	-7.58002691401551	
1465000000	-29.2628925471433	-20.2630198520326	-0.379538430938182	-104.79230107701	-0.372203123057605	-104.711182975963	-29.0512249305317	-12.5137851672591	
1467500000	-29.0777871620251	-25.4879112939655	-0.379320564755474	-109.274753769908	-0.373251850908382	-109.178617130105	-28.927521516767	-17.4848664401995	
1470000000	-28.9542799128065	-30.6328576246005	-0.38090418181435	-113.73839936357	-0.375039889479895	-113.660688994981	-28.7783617981796	-22.4680386562023	
1472500000	-28.8608249027107	-35.7610820814997	-0.380811779949026	-118.22493940768	-0.374479317335735	-118.125351671337	-28.7230586956535	-27.4689116691861	
1475000000	-28.808120260933	-40.6553700764783	-0.380658201437913	-122.695692089055	-0.373917868349228	-122.603165110154	-28.673679677197	-32.4795984613325	
1477500000	-28.7989975508658	-45.6914156178658	-0.381085616581399	-127.179375420815	-0.374735568873814	-127.069374962925	-28.6837576548054	-37.6259248416218	
1480000000	-28.8291931228492	-50.7150353807505	-0.380623061774811	-131.664491224398	-0.371723292561728	-131.534026211543	-28.7363238889624	-42.60866352656	
1482500000	-28.8996623309349	-55.6916446345595	-0.380729067208369	-136.127009891139	-0.37430422541361	-136.019303942412	-28.7841511685278	-47.6806862645709	
1485000000	-29.0289570108862	-60.570408617204	-0.380628095127623	-140.606037612565	-0.373546769578706	-140.500226033315	-28.8889447105772	-52.6976902291027	
1487500000	-29.1831320428006	-65.3240933975207	-0.380681737435311	-145.079385010591	-0.373780092538097	-144.968475804113	-29.0621337468798	-57.9113410310121	
1490000000	-29.4182796536564	-70.1280955663403	-0.380312904726928	-149.548643642249	-0.376059646613444	-149.438666931662	-29.266097896691	-63.1205153984564	
1492500000	-29.711082908593	-74.751527186061	-0.379905156247254	-154.031932836384	-0.372901062896653	-153.916203737366	-29.5584515603441	-68.0693060244364	
1495000000	-30.06537460152	-79.4449029336662	-0.380816202457843	-158.510861298889	-0.370863930957163	-158.384346850156	-29.880811050508	-73.208452935251	
1497500000	-30.506903086344	-84.0526806668039	-0.379276344825022	-162.982319244898	-0.371883550063309	-162.860562541916	-30.3119889621595	-78.42933580626	
1500000000	-31.0234042929089	-88.4937847416125	-0.378495804964194	-167.464999944844	-0.368415968712546	-167.342611577465	-30.8124555104235	-83.4678902730884	
1502500000	-31.6442027034411	-93.077098945811	-0.378422451377449	-171.93117742988	-0.370807925647337	-171.807389250494	-31.3603860116407	-89.0488567543518	
1505000000	-32.4079637079884	-97.5116657940418	-0.378200262540314	-176.410023929447	-0.37003373236452	-176.28023721602	-32.0450110843041	-94.6166673340314	
1507500000	-33.2758109299659	-101.950052889023	-0.377809071105487	179.114449853895	-0.370963958398143	179.237788399809	-32.8552236510153	-100.103511315765	
1510000000	-34.4048852036766	-106.191651236329	-0.377170234740942	174.647693690889	-0.371141995742288	174.77646117324	-33.8890369879265	-106.155350164906	
1512500000	-35.7341198448455	-110.305517302376	-0.378582315027029	170.152832211741	-0.371724159939438	170.281305502727	-35.0320206017611	-112.108230166957	
1515000000	-37.4803773192398	-113.547308507098	-0.378000228816514	165.67398132342	-0.371404203371309	165.803300333414	-36.4877072227858	-118.956972708878	
1517500000	-39.6406044522095	-117.409167648897	-0.378633583359195	161.189258674052	-0.371537792311461	161.314712057568	-38.2655441325546	-126.482840200219	
1520000000	-42.7502491546104	-120.192307695755	-0.380368327923651	156.694150183659	-0.371599357706946	156.8215896604	-40.547712848639	-136.026325809324	
1522500000	-47.8812764125097	-118.612421661227	-0.378738773919236	152.224968591182	-0.371481499664875	152.344823668083	-44.0285395887997	-150.08889583069	
1525000000	-59.3173282509912	-76.690690083457	-0.378320265528761	147.738646522032	-0.371662257975185	147.866630739521	-48.5884343703318	178.614949120592	
1527500000	-50.2645784238769	22.3887610013573	-0.379564713653739	143.25576843365	-0.37256382901023	143.379190696064	-49.4754414770215	115.883448844117	
1530000000	-43.7004158316288	26.69065252983	-0.377790335739073	138.772923119072	-0.373080225814807	138.90400223117	-44.9428513742484	75.693436382271	
1532500000	-39.8601213821798	25.5462063984269	-0.38106227816232	134.292817668041	-0.374121576174323	134.41491421069	-41.0257737215283	59.8071373504188	
1535000000	-37.2458522862465	22.7246590710707	-0.38186497896876	129.812771547009	-0.374469730125702	129.933798557637	-38.2221867058231	49.1375381675815	
1537500000	-35.2076716377575	19.1758614976337	-0.382962780483952	125.330596140485	-0.375831315627483	125.450036367256	-36.0660071723939	41.6032569508745	
1540000000	-33.5657569526877	15.3442525469045	-0.385568728940353	120.858467813269	-0.377024979594446	120.95864818131	-34.291106955428	35.1801660627357	
1542500000	-32.2460165421766	11.3048484866896	-0.385768626599697	116.370818505224	-0.378314138337283	116.49306848619	-32.849408337016	28.6695578977717	
1545000000	-31.0962933896527	7.01472329655209	-0.385984727562552	111.896062694485	-0.377521153706583	112.013721230171	-31.6165206905112	22.9093720050042	
1547500000	-30.0987015999971	3.28767450343339	-0.387574123673541	107.420137751027	-0.380448722250788	107.542534093312	-30.5898540105507	17.4093816201511	
1550000000	-29.2562897333968	-0.666462553200901	-0.387983649763703	102.940763811184	-0.381654422636217	103.089516681428	-29.7283130289812	11.883686536021	
1552500000	-28.5213103392018	-4.7815949213616	-0.390573550710253	98.475460107639	-0.383303395208878	98.5944524064856	-28.896439186775	7.02196202253696	
1555000000	-27.8553672708737	-8.90436887665526	-0.391248995634656	94.0053337000189	-0.38553272813806	94.1238701322636	-28.177974472042	1.95433743943962	
1557500000	-27.3019698314179	-12.9334027499089	-0.393459394981097	89.5325940028893	-0.38645781625475	89.647910435232	-27.5648709536545	-3.02125299338139	
1560000000	-26.8055355717199	-16.9955368095733	-0.39439976169048	85.0632422499676	-0.391113898878775	85.1597873178703	-27.0078597578796	-7.79923043175833	
1562500000	-26.389234060643	-20.991185482283	-0.395964846206799	80.5885305063863	-0.388876156064853	80.7051005591011	-26.5797549116857	-12.732979183948	
1565000000	-26.0301457579226	-24.972707141942	-0.397173371882671	76.1159049421058	-0.390175714358414	76.232829172478	-26.1923847395879	-17.5061968261315	
1567500000	-25.7373926725409	-29.0713949434474	-0.397795255935097	71.6457915637384	-0.390365422356353	71.7619988103224	-25.8769065265399	-22.3772718020711	
1570000000	-25.5162266155303	-32.9588532304519	-0.397779513787114	67.176078069545	-0.386981632777379	67.3025914851972	-25.6265263269584	-27.0755928755386	
1572500000	-25.3355284904977	-36.908683846249	-0.39929671667649	62.7012651351528	-0.391890744172186	62.8236266684767	-25.3830385429576	-31.8658684601014	
1575000000	-25.2081059376856	-40.8603183022058	-0.400700138972241	58.2365612503776	-0.392662914925062	58.3554866055222	-25.2153759976283	-36.55905829679	
1577500000	-25.119906497671	-44.6599541408871	-0.399677336335806	53.7597985529408	-0.393676772711191	53.88075966828	-25.0979941885343	-41.2788737011133	
1580000000	-25.0947208335216	-48.5890449029533	-0.401430933234359	49.2796047245295	-0.398438891547524	49.413296460233	-25.0267822839846	-46.114270618502	
1582500000	-25.1266852574471	-52.2487253974252	-0.400477732641164	44.8129195529978	-0.393990490647009	44.9368696788692	-25.0477315008647	-50.7186429532471	
1585000000	-25.2070314043701	-55.9155570285219	-0.400041505993813	40.3360757157535	-0.394154653471096	40.4572079853208	-25.1010048066246	-55.4021154047282	
1587500000	-25.3487864783447	-59.5639180038145	-0.400251485210508	35.8672612587438	-0.393601577720929	35.9882976001806	-25.2159580716717	-60.1282413684181	
1590000000	-25.5485383564701	-63.0032031841007	-0.397283845480711	31.4011617925114	-0.39039177684069	31.5049226380113	-25.3909578952052	-64.7459627309093	
1592500000	-25.8031630815406	-66.4764634315658	-0.399275411839086	26.923680713808	-0.392811907128871	27.0434185639364	-25.6013882564086	-69.6657477262891	
1595000000	-26.1233263354527	-69.6862961704507	-0.398134547268527	22.4432861328175	-0.391821362259914	22.5719747498772	-25.8953627264256	-74.3544961144208	
1597500000	-26.5254595656925	-72.8102940133349	-0.397762333244888	17.9771288726927	-0.390839893506838	18.1028081404682	-26.2803887461996	-79.2437387831117	
1600000000	-27.0375596112831	-75.8774660097618	-0.401980398015207	13.5107067080622	-0.395018711901297	13.6422526199907	-26.7539939484615	-84.3360503366835	
1602500000	-27.5865189818413	-78.5707916657719	-0.398897104109513	9.00469189384935	-0.391527702752378	9.14948466630248	-27.3052503384302	-89.1484961263223	
1605000000	-28.2796420123626	-80.9873486355529	-0.399424686653289	4.53933051886334	-0.392363310201389	4.67454722667428	-27.9601138121889	-94.1237225779417	
1607500000	-29.0628667964462	-82.7672813798313	-0.399132197826106	0.057839631259131	-0.39185846397158	0.199424743696989	-28.7453701432984	-99.2338723269579	
1610000000	-29.9780723403702	-84.0947284028824	-0.39779312527211	-4.42198044418703	-0.390675864092923	-4.28487363991789	-29.6709570416031	-104.519115255041	
1612500000	-31.0234589169441	-84.2308103787108	-0.398214541429474	-8.90359921780556	-0.391318932770832	-8.76116543571929	-30.7749942763802	-110.094867915631	
1615000000	-32.1979368342978	-83.2323444804341	-0.398778906921814	-13.3857347035598	-0.391006938831372	-13.2506048556527	-32.1406112771151	-116.008727053241	
1617500000	-33.5439925457787	-79.9838962042536	-0.398427808940965	-17.8656259465745	-0.391345757242245	-17.7278892783803	-33.8253583379386	-122.604964087761	
1620000000	-34.9827364936617	-73.7092800754628	-0.399022098662751	-22.3525153370037	-0.390180061946679	-22.2164421193816	-35.9636443505507	-130.850518136422	
1622500000	-36.2138742722817	-63.1652287533559	-0.398944487810948	-26.8400151426289	-0.391088526651823	-26.7051917574543	-38.8190881615849	-141.743814136441	
1625000000	-36.8756675754025	-49.1177886300251	-0.400510186834755	-31.3296250939452	-0.391521850223323	-31.1893871505353	-42.8539067710246	-161.429535330447	
1627500000	-36.5794386289242	-33.6907802916159	-0.400565739972631	-35.8131989676248	-0.39274605340895	-35.680357325714	-47.0099692760019	150.424689864541	
1630000000	-35.4756555393574	-21.2938498860621	-0.400552067350624	-40.3012050011014	-0.392313835683514	-40.1646149175937	-44.2405873227748	92.8136490702761	
1632500000	-34.0469454579674	-12.9758914074674	-0.401986929325619	-44.7873365246058	-0.394263940636971	-44.6473885335057	-39.6771690715503	67.9263358872069	
1635000000	-32.5644026182491	-8.52878386051452	-0.4036220758717	-49.2646087811041	-0.393771966134834	-49.1379513854119	-36.4256830194934	55.7592292429137	
1637500000	-31.1915573267777	-6.25529670472667	-0.404272802301507	-53.7542159652146	-0.397476264955361	-53.6157518268479	-33.9658859070192	47.0011692582881	
1640000000	-29.9629758303214	-5.68655906052223	-0.405699301229845	-58.2386152479142	-0.39959119944072	-58.0971070394933	-32.0643278248545	40.004206445508	
1642500000	-28.9025634852681	-6.22061900994404	-0.40770008179515	-62.7179951286948	-0.400017922333548	-62.5803456245698	-30.5561254583062	34.0614315010548	
1645000000	-27.9690734994686	-7.55437531711226	-0.407976053882052	-67.1937225093047	-0.401755150283616	-67.0536525486359	-29.2873278670241	28.5538932067151	
1647500000	-27.1523713774265	-9.39748637076269	-0.410629090051522	-71.669870246189	-0.402811230158419	-71.5321822814494	-28.2443888303607	23.222046905111	
1650000000	-26.4238798706796	-11.6420763927201	-0.410793505354684	-76.1515632607975	-0.404365199288338	-76.0074354646713	-27.3439166790936	18.2735404412215	
1652500000	-25.7963065127461	-14.2810895944697	-0.41432977276415	-80.6176922390956	-0.405805635329559	-80.4780991025892	-26.5668168283415	13.2562241874432	
1655000000	-25.2676065941217	-17.0301999694465	-0.417365949931812	-85.0813303455691	-0.407722339468829	-84.948997165375	-25.9036101212884	8.5347334690398	
1657500000	-24.8039950342069	-19.9016905763633	-0.417189330513953	-89.5621650504908	-0.409736511417217	-89.419805827647	-25.3356045416458	3.8882528814133	
1660000000	-24.4119035656235	-22.9720042938614	-0.419513014434974	-94.0296752475104	-0.411297292232353	-93.883350391498	-24.8623934406951	-0.789213466291168	
1662500000	-24.0850076082422	-26.1803496389745	-0.420649097767624	-98.5059892386854	-0.412740740113028	-98.3599999790116	-24.4663451073628	-5.3437456092039	
1665000000	-23.8143486173077	-29.4519736206256	-0.423303171510168	-102.983235023771	-0.414064643082076	-102.827648575881	-24.1315134110844	-9.9153530237291	
1667500000	-23.6078211448136	-32.7183990224507	-0.423277241323474	-107.447692239251	-0.415648870764579	-107.301812143246	-23.8681658092025	-14.3904097359935	
1670000000	-23.4587294658881	-36.0841630015156	-0.425325595206838	-111.925743223916	-0.417706262630993	-111.774522304536	-23.6610851648215	-18.8840644289145	
1672500000	-23.3769435910614	-39.4263535698267	-0.424751056503722	-116.392570306018	-0.417530683030388	-116.240299419401	-23.5318795074446	-23.263292494285	
1675000000	-23.3462972733544	-42.8513565055755	-0.426184593048326	-120.863207062504	-0.418511610003447	-120.711926265503	-23.4512679186502	-27.7120143845782	
1677500000	-23.3684346862909	-46.2455897443463	-0.424926184389659	-125.331982273488	-0.418416221361249	-125.179000536297	-23.4351581518945	-32.1159581129856	
1680000000	-23.4430831015297	-49.627870668014	-0.424745725984717	-129.786224625319	-0.417395697265624	-129.64902720435	-23.4897501903458	-36.5383659183545	
1682500000	-23.574042486088	-52.9829844599219	-0.425512150222725	-134.275583084141	-0.418467414590567	-134.117987031416	-23.5800996415001	-40.9176842215396	
1685000000	-23.7725675571004	-56.315656255333	-0.42795200816884	-138.74285296372	-0.417106419959524	-138.590819030817	-23.7432000786116	-45.3318725305968	
1687500000	-24.0380727097283	-59.5767135341884	-0.425091800269316	-143.213728662434	-0.417334270583603	-143.062887409253	-23.9720898848573	-49.5887961599332	
1690000000	-24.3684978392842	-62.7180753375953	-0.425942589740662	-147.693029251026	-0.415855900493836	-147.526262422582	-24.2668913249016	-53.9333719864008	
1692500000	-24.7713104897568	-65.8243164841041	-0.423285125172006	-152.157129375266	-0.414993607917812	-152.002051219606	-24.6555532360313	-58.1990191822447	
1695000000	-25.2327049088691	-68.7483277982543	-0.421333492281943	-156.636580565901	-0.413878430296007	-156.47888384463	-25.1132368073392	-62.4603069559562	
1697500000	-25.8078666425767	-71.5661502181954	-0.420713825418269	-161.105402815897	-0.412886036750057	-160.945662880563	-25.6722024021925	-66.6461785758342	
1700000000	-26.4627738405038	-74.1828336245084	-0.417672733190012	-165.587699365425	-0.41300770560387	-165.427047461004	-26.3316901214922	-70.6042907097578	
1702500000	-27.2573962352222	-76.3241104115921	-0.418158733967617	-170.064055210785	-0.410578266051714	-169.897844546061	-27.1193484144249	-74.8419156888679	
1705000000	-28.1696687672997	-78.0727138041971	-0.41705644564679	-174.542232128069	-0.410470084455192	-174.378283769367	-28.0736922579245	-78.8538716757452	
1707500000	-29.2423178182043	-79.1258355454264	-0.41724513339127	-179.022053354831	-0.408749040421292	-178.855721518127	-29.2291914382103	-82.7469738076682	
1710000000	-30.4982554777568	-78.9722294147039	-0.416848898061224	176.502248079898	-0.406994502425088	176.648920421087	-30.6376289576592	-86.6956852685062	
1712500000	-31.9706570981157	-77.2221301942463	-0.415046685904399	172.013237000994	-0.408116341350565	172.174620372157	-32.3681202268287	-89.9160252569666	
1715000000	-33.7006346569304	-72.8562020786295	-0.41455109673572	167.524324352602	-0.406773536079266	167.693055230414	-34.6759382287693	-92.6341364687435	
1717500000	-35.4966124913678	-63.5044560633855	-0.414976194638154	163.039065112776	-0.406311285168597	163.189282223916	-37.9100725445954	-94.3177942183237	
1720000000	-36.9689273239342	-47.893315329	-0.415038030823528	158.547481991667	-0.405810288086517	158.70612049416	-43.0843445425829	-90.4991919106653	
1722500000	-37.2453374241364	-27.4704277230964	-0.415263068633929	154.057208073424	-0.406524488200774	154.196257048281	-53.770033757951	-37.3483024771461	
1725000000	-36.051017064413	-9.36713145024902	-0.416027778583621	149.569519186635	-0.408769911902277	149.709018923879	-44.5879122750624	43.3248651345971	
1727500000	-34.2409131120253	2.03577337248126	-0.416826944804146	145.08324447945	-0.408715498250685	145.221880317022	-38.5132725606295	49.0536844085833	
1730000000	-32.3985077010494	7.97708203887216	-0.419437619355119	140.591699810846	-0.413573827092215	140.734970573567	-34.8829854437014	47.7818033608587	
1732500000	-30.8005059288904	10.5736805625463	-0.420333373729446	136.107825714735	-0.412037555078418	136.25663489214	-32.4362779424273	45.1723932272386	
1735000000	-29.4055023751677	11.2965152783567	-0.421168517971935	131.618376728239	-0.413480125382046	131.768300513917	-30.5142923998196	41.9467711390875	
1737500000	-28.1923419464945	10.5192245853207	-0.423498691248391	127.141239055178	-0.415207504737629	127.28223744658	-28.9943512041869	38.2528572969839	
1740000000	-27.1423604918141	9.11573619931804	-0.423225005775559	122.653568250004	-0.414700056796227	122.797288156612	-27.7451160017698	34.5470300561183	
1742500000	-26.2211557864664	7.01073629890119	-0.42629031072795	118.181863581162	-0.419371561852249	118.320181679802	-26.6869896251951	30.4546076204182	
1745000000	-25.4672227708476	4.64109005904557	-0.429432729459594	113.708962718585	-0.420614738473763	113.846026976493	-25.7947360348323	26.3577798895003	
1747500000	-24.7921894398202	1.95288483158923	-0.430487340797304	109.231836994986	-0.422864013169335	109.372173887874	-25.0357914272234	22.2505825522501	
1750000000	-24.2185839841601	-1.03690784325131	-0.433444349828249	104.773583705679	-0.426431418216119	104.909885725453	-24.3890452984579	18.0064298971935	
1752500000	-23.7119635375205	-4.05625888934581	-0.435731000160455	100.297147253051	-0.42794734002843	100.4350966779	-23.8266092134391	13.8587592065162	
1755000000	-23.2928900670443	-7.24991451855264	-0.438580739657422	95.8286704271773	-0.430700203314243	95.9654544080424	-23.3484351446125	9.63006560181453	
1757500000	-22.9445153831953	-10.5376941448508	-0.43994244497267	91.3635284566021	-0.432304897129939	91.4962687731992	-22.9505871625084	5.40060209792023	
1760000000	-22.6582120566004	-13.9001984944964	-0.443738476827529	86.8812739195898	-0.434290006714662	87.0273127986913	-22.616323301465	1.16737591380551	
1762500000	-22.4278474849586	-17.3241381352274	-0.444071156407794	82.424911300406	-0.436300044977959	82.5692831567366	-22.3764178345318	-3.08081285777507	
1765000000	-22.2600970994091	-20.7551750447093	-0.445616116802947	77.96518749593	-0.437351799194827	78.1025206044369	-22.1801977049546	-7.29210484234884	
1767500000	-22.144026056676	-24.2383206117717	-0.445670867111512	73.4983196354883	-0.438945386333438	73.636026216404	-22.0411942441961	-11.4929750774176	
1770000000	-22.0858329072305	-27.6686954060555	-0.44509786893358	69.0307688330787	-0.439940448467166	69.1756223677478	-21.9739828618565	-15.731314178819	
1772500000	-22.0827276767482	-31.1577891313588	-0.44762517901077	64.5658417328459	-0.440169872226132	64.7094205808137	-21.9467761275778	-20.0114577720719	
1775000000	-22.1265973029528	-34.6452352685304	-0.447715442451119	60.105730258759	-0.440740393571236	60.2396560948266	-21.9755163933983	-24.1724406498837	
1777500000	-22.2316812000508	-38.0870008197558	-0.446970227692275	55.6394802609827	-0.440607737739729	55.7744813168096	-22.065024839744	-28.4259091180287	
1780000000	-22.3974313088278	-41.5148946264665	-0.447346282622068	51.1759735691788	-0.438975999349231	51.299978207618	-22.2148972115056	-32.7434947713242	
1782500000	-22.6119178097955	-44.8469719000947	-0.446532950387462	46.7053128993803	-0.439121817010433	46.8314666509445	-22.4274116157767	-36.9385957254706	
1785000000	-22.888090431357	-48.1788313388682	-0.445987160851437	42.2369889341633	-0.438307468413743	42.362580855012	-22.7011606307296	-41.1276487463671	
1787500000	-23.2233510484016	-51.3742769592598	-0.444828039979165	37.7662012143441	-0.436887813382837	37.8979095137524	-23.0361863048144	-45.2960898288009	
1790000000	-23.627194738665	-54.5013018647054	-0.444067928475793	33.2961356791935	-0.435803376599054	33.4408795034596	-23.4402625861029	-49.3619877146508	
1792500000	-24.120381728206	-57.4983432751224	-0.441581238994574	28.8255184194323	-0.434094340807102	28.956749023969	-23.9350852206602	-53.5810082353136	
1795000000	-24.6780589466423	-60.3170375339182	-0.440409437739601	24.3515296983027	-0.432179169074379	24.4856057734077	-24.5146887304615	-57.7194771034361	
1797500000	-25.3419271161003	-62.8150391873833	-0.439691237329873	19.8764055035933	-0.430930340434479	20.0138315813677	-25.1935828369996	-61.7580943328822	
1800000000	-26.0986534142423	-64.9380427661641	-0.437192915181125	15.4013823468889	-0.431319681727634	15.5249985254631	-26.010064061629	-65.7162331542162	
1802500000	-26.9723408364057	-66.862671860849	-0.435702764236822	10.9205154813502	-0.428650620514301	11.0652903162286	-26.9500259969423	-69.59262670931	
1805000000	-27.9823245285325	-67.9419653416645	-0.434086777401525	6.44106252217971	-0.427423385572639	6.5815210027266	-28.0698443036469	-73.4892517354346	
1807500000	-29.1492021088499	-68.1092570753252	-0.433552781034502	1.96453871706313	-0.425349975022792	2.09797885964818	-29.420400962552	-77.1461079904447	
1810000000	-30.4825811197904	-67.067064403916	-0.430779766697903	-2.51524390436398	-0.42170657147829	-2.38909141338431	-31.0612231942071	-80.5897630906811	
1812500000	-31.9743917681776	-63.6254746059464	-0.431704426756596	-7.00626910019307	-0.423877781534822	-6.87718483345192	-33.2017448219929	-83.171682029901	
1815000000	-33.5778847313439	-56.9444527822782	-0.431860899039226	-11.4973755958871	-0.423987337015367	-11.3601640552058	-36.0829200499432	-84.5580403082477	
1817500000	-35.0376042340046	-45.6505022115658	-0.431398026962585	-15.9824416054572	-0.423291033563761	-15.8468840353104	-40.4300013621013	-81.8632340700727	
1820000000	-35.815753563093	-29.5675903867402	-0.433664119203987	-20.469321329176	-0.425470285701293	-20.3278867879257	-48.0268555361325	-56.3460616687593	
1822500000	-35.4972895871578	-12.1409687119878	-0.431895480873101	-24.9620250088059	-0.423903028729572	-24.8225983813377	-46.7694177816777	34.4459387736686	
1825000000	-34.2433388769196	1.28640292135774	-0.433171249824213	-29.455495107647	-0.425306620377034	-29.3106044297443	-39.7403803234961	52.2573071566848	
1827500000	-32.6836454602774	9.56855481912351	-0.434072545069466	-33.9408886295978	-0.426636684873862	-33.8034218584165	-35.7168148140387	53.7781006164366	
1830000000	-31.1149575873873	14.1964050783619	-0.434557926122021	-38.4439868149772	-0.428116258311736	-38.3012202139221	-32.9713181616214	52.1638436882532	
1832500000	-29.7619459388037	15.9719466889072	-0.436822848808272	-42.9215200902615	-0.429501202211242	-42.7796696496803	-30.9637731645557	49.1640226136252	
1835000000	-28.5837308023396	16.2343589821426	-0.438325842919391	-47.4101413591491	-0.430031709945528	-47.2630416854745	-29.3828976691946	45.7166197027385	
1837500000	-27.5657819054958	15.3856959539393	-0.439459122955983	-51.8898499020906	-0.431580607778931	-51.7488187394228	-28.0997118170669	42.0203350721465	
1840000000	-26.6940101417477	13.8645443052818	-0.441367170101193	-56.3629259085034	-0.432637713295671	-56.2231252015199	-27.0596571555229	38.1628750835189	
1842500000	-25.9272747228121	11.7669883635303	-0.444051496189819	-60.8512505296917	-0.435448746715314	-60.7048365009744	-26.1591528702582	34.2090451864376	
1845000000	-25.2803907334378	9.41566892141877	-0.445944937791199	-65.3246805359342	-0.437337652855531	-65.1779388927194	-25.4115908462546	30.1581935412008	
1847500000	-24.7127187848116	6.7811052660735	-0.448133249446883	-69.7972239612574	-0.439066183718473	-69.6535611383695	-24.7814233209695	26.1260537824875	
1850000000	-24.2417138835951	3.98496743748887	-0.450580447601733	-74.2690206054913	-0.4416016270742	-74.1227389853801	-24.2480982620134	21.9464705695611	
1852500000	-23.8507661259449	1.1011198651995	-0.451635784918226	-78.7372301599367	-0.442257383571523	-78.5945101315613	-23.8108608088754	17.7989009568962	
1855000000	-23.524516732668	-1.90490717147115	-0.454031848548403	-83.2007811476691	-0.444516857662145	-83.0628957830555	-23.4484856087107	13.5812693191646	
1857500000	-23.2634425726492	-5.07496641049708	-0.455583837936656	-87.6726880569957	-0.446001532484975	-87.5313781324083	-23.1597490361594	9.30433095421273	
1860000000	-23.0609664244415	-8.30244828538997	-0.457189360759118	-92.1386427350989	-0.44883045616124	-91.9991951833178	-22.9474520770274	5.09853548729797	
1862500000	-22.9257298717458	-11.5822458516537	-0.457941284551615	-96.6070692732535	-0.448829647372707	-96.4709302327288	-22.7889404813774	0.776124037009383	
1865000000	-22.8399607632851	-14.7985340354013	-0.458812698791119	-101.077290359671	-0.45009773018564	-100.938399628939	-22.7031794596885	-3.51725894244541	
1867500000	-22.8205677634533	-18.0468295865935	-0.459338127785087	-105.544533922354	-0.450290483487142	-105.404090351303	-22.6754801960028	-7.82963958735256	
1870000000	-22.8536121143272	-21.2933631599386	-0.459919577419431	-110.019211122371	-0.450154746630706	-109.878791029119	-22.7023020097675	-12.2621939196194	
1872500000	-22.9375838526444	-24.4853671769508	-0.460315055646601	-114.481766810155	-0.452014052679123	-114.344745732854	-22.7857409240706	-16.5412213854135	
1875000000	-23.0829301736232	-27.6654571787279	-0.461372490257786	-118.951969488314	-0.45075094417081	-118.804662796814	-22.9340051551062	-20.9450780878382	
1877500000	-23.2820427909187	-30.7379952036718	-0.460788880219807	-123.418898042657	-0.450163816342516	-123.284142284388	-23.1451847341287	-25.3347471937598	
1880000000	-23.5360944722127	-33.7749949043196	-0.45901827195359	-127.883261422435	-0.448822808108734	-127.744021474805	-23.4088936042777	-29.7339233387809	
1882500000	-23.8421203366587	-36.6020205781777	-0.459155328762799	-132.362336907682	-0.44897794899846	-132.225462469221	-23.7546038638323	-34.2811339812878	
1885000000	-24.2098979394368	-39.3602256031922	-0.459293152989121	-136.838353435544	-0.448229338254798	-136.699106688448	-24.1642680559512	-38.8282660844229	
1887500000	-24.65496628517	-41.9290537152986	-0.457779518114185	-141.314722995054	-0.448479270946007	-141.170308390097	-24.6642992036013	-43.3961950856575	
1890000000	-25.1645881746573	-44.1814163073437	-0.459322545388353	-145.795919609804	-0.449053572209438	-145.649225373711	-25.2696773876801	-48.0363552671299	
1892500000	-25.7458950437121	-46.2698881630157	-0.456590730983533	-150.265056796951	-0.446089418190403	-150.124863719299	-25.9442049451015	-52.8246554492814	
1895000000	-26.400622156087	-47.895899585399	-0.45486459803503	-154.738897846101	-0.445947966258775	-154.59949853922	-26.7399400066212	-57.6544804481063	
1897500000	-27.1420730602959	-49.0437575361323	-0.453729476658517	-159.219380184776	-0.444235906790628	-159.0777030126	-27.6865963016063	-62.7467980679968	
1900000000	-27.9558583347091	-49.4695829306822	-0.451102259760888	-163.700460270716	-0.441970648266663	-163.562731628698	-28.7862718408153	-68.1618679553768	
1902500000	-28.8540327953939	-49.0439530139152	-0.452363417761337	-168.174040313907	-0.442591187036287	-168.035677160165	-30.1158223739473	-73.7020563143131	
1905000000	-29.8187402542015	-47.3800702026061	-0.451638329266407	-172.649967524503	-0.442008306148609	-172.519456981899	-31.7326856052656	-80.0480128262568	
1907500000	-30.8156046894699	-44.2818028117175	-0.450727585578813	-177.132932717397	-0.441550626107602	-177.00046626715	-33.7165309724656	-87.6728998954251	
1910000000	-31.7525334649828	-39.1974284354379	-0.453666545748908	178.389353776107	-0.441203935272463	178.52269343304	-36.3382994029943	-97.2797073892535	
1912500000	-32.5256674005457	-31.8965974133242	-0.451196237997627	173.896407518693	-0.43998330433602	174.025388317167	-39.8425212696055	-113.12435574796	
1915000000	-32.9794743853119	-23.2693980513579	-0.450318744159411	169.411359987228	-0.441254195305124	169.54322607529	-44.1511301691874	-145.698381057374	
1917500000	-32.9719104302521	-14.0437950913321	-0.452344301091	164.922962163473	-0.441893080423439	165.054473323932	-44.3783287712563	155.041401963375	
1920000000	-32.565937472165	-5.64410889644952	-0.452379580954146	160.420250228923	-0.443495846166214	160.567590884147	-40.0678452708161	120.351100399929	
1922500000	-31.8379004987585	0.964693752455914	-0.453753524613693	155.945398874446	-0.442935630631798	156.080319745012	-36.6529712135536	104.029762502232	
1925000000	-30.9430891135387	5.80776592446405	-0.453869063251859	151.455144072466	-0.443941442987731	151.587329046455	-34.0937883844433	94.1544503453512	
1927500000	-30.0240491719807	8.47855530685478	-0.454244935493524	146.966237138133	-0.44528719823391	147.09768111543	-32.1615402433637	86.6291751146549	
1930000000	-29.1711017461332	9.75733317584817	-0.454978121115835	142.485100272331	-0.446702786705775	142.60459322368	-30.6399778081966	80.3067803453455	
1932500000	-28.3674005412132	9.8605097903416	-0.456811586940235	137.993356122269	-0.447620043423935	138.129185060158	-29.3536111850813	74.7029240395182	
1935000000	-27.6713013518913	9.2219130516925	-0.457938650670358	133.512342438181	-0.449329350854575	133.642944981956	-28.313485717399	69.4289503802727	
1937500000	-27.0403133550017	7.96816768589238	-0.459229938903493	129.03051822749	-0.450811097894188	129.156111823622	-27.4448988051504	64.4206177741599	
1940000000	-26.4864133784266	6.00293089019415	-0.461172582300337	124.549493595344	-0.45093289986969	124.686410319563	-26.6876462443647	59.5661264382486	
1942500000	-26.0040161566309	3.75470143570754	-0.462929072534578	120.072865063131	-0.453875806888372	120.199354671089	-26.1107218747307	54.9467411063734	
1945000000	-25.6090135452905	1.24077982360887	-0.463952918485486	115.593989591481	-0.455674835508582	115.725711484279	-25.6006292734544	50.4187958822553	
1947500000	-25.2744898923598	-1.68312384655489	-0.464848715634059	111.120220249127	-0.456409703435461	111.259117473082	-25.1779612271708	46.0112745860877	
1950000000	-25.0121063641915	-4.63292801726761	-0.467703768336519	106.655176460006	-0.461220983612243	106.786016535088	-24.838902834725	41.7596753414529	
1952500000	-24.8116266990403	-7.96944929987788	-0.467623779518222	102.173640581053	-0.458413562621716	102.320979894817	-24.5604953288414	37.4493844050408	
1955000000	-24.670042027419	-11.2368676574535	-0.468574862939444	97.7065682646682	-0.460221337731284	97.8464137510253	-24.3620165058552	33.2433841531672	
1957500000	-24.5822118752004	-14.7421221585801	-0.46869674239401	93.2316297405697	-0.461242975378288	93.3787209023892	-24.2241683835928	29.0508419051921	
1960000000	-24.5577906490647	-18.2709669492979	-0.470126532381773	88.7468121193689	-0.460611569993046	88.8901063376662	-24.1506476603023	24.7729640805388	
1962500000	-24.5759239013594	-21.8307884888602	-0.471100579784421	84.287222605746	-0.462706794391588	84.4309463378106	-24.123459892443	20.7100136308936	
1965000000	-24.651178029408	-25.5552872672614	-0.471708738850554	79.8196743798203	-0.462849335480224	79.957410964208	-24.1608382257622	16.6269042587306	
1967500000	-24.7991877734924	-29.3709713988743	-0.470582809475192	75.3410969060653	-0.462324028539442	75.4864429948578	-24.258899768611	12.5651096664512	
1970000000	-24.9912639900979	-33.2363081629396	-0.469358758135968	70.8742172441987	-0.461548707868042	71.0255147127743	-24.4063050397361	8.59538111867542	
1972500000	-25.2639614876543	-37.1117922195514	-0.470552593785035	66.3876683179115	-0.462005633001305	66.5385069445608	-24.630437670013	4.69114337106827	
1975000000	-25.5689858732656	-41.0920651975199	-0.470236191804252	61.9195170637813	-0.461772923609569	62.0699393188697	-24.9060859458065	0.875459150020709	
1977500000	-25.9630128198869	-44.9628983755929	-0.470542528203533	57.445679426733	-0.461628794053145	57.5923868315551	-25.2519671705425	-2.835169481864	
1980000000	-26.423723244245	-48.8977218595412	-0.473040977893743	52.958700828192	-0.462545946956347	53.1125177902837	-25.6620458061821	-6.41918257144453	
1982500000	-26.9657299915424	-53.0208511051097	-0.47007731500273	48.4881913186511	-0.460371009619275	48.6454446367885	-26.143565621911	-10.1081454646306	
1985000000	-27.6110177561	-57.0927295607232	-0.469194433791594	44.0083079290077	-0.460634723283447	44.1603280890936	-26.7128220267068	-13.5970221965503	
1987500000	-28.3446265302688	-61.1535605651877	-0.468676196224441	39.5276860125392	-0.458981077547657	39.6873011149377	-27.3825421420734	-16.9891513470365	
1990000000	-29.2267684093774	-65.3117443861782	-0.466426802733956	35.0433200885196	-0.457480619470951	35.2086887693467	-28.1531471994221	-20.0909101578419	
1992500000	-30.216520121156	-69.4317800697137	-0.467027554694769	30.5737009747114	-0.456673434736719	30.7292020573966	-29.0403016253446	-22.7590788206494	
1995000000	-31.3993641449401	-73.594099523626	-0.465525874645629	26.0947772765653	-0.456479550364006	26.2569432790103	-30.0555766869048	-25.0857214753343	
1997500000	-32.8302568797361	-77.8407500654027	-0.46488787648146	21.6169934333868	-0.455024613938656	21.7820899570819	-31.2445183116992	-26.8865145304065	
2000000000	-34.553104852434	-81.9816999346148	-0.463848590734844	17.1442696200449	-0.454401080646129	17.2966319172094	-32.6377107829017	-27.5381344511546	
2002500000	-36.8485944046296	-86.4087479188686	-0.463273464934384	12.6575886042596	-0.454340482781417	12.8222822782668	-34.3323540469511	-26.8400885740995	
2005000000	-39.9384909249546	-91.1666987967149	-0.463502300905072	8.18112247571304	-0.454446415282435	8.34003730684123	-36.2951787475284	-23.1480742258048	
2007500000	-44.8047929731609	-96.1025448368449	-0.462906223253461	3.69882346266286	-0.453580426784394	3.85415390376597	-38.5375163477753	-14.767247545008	
2010000000	-56.7828544985915	-102.771696224784	-0.46381145230861	-0.784679222867245	-0.453384751977436	-0.617371394094214	-40.6694306560676	2.47753078988216	
2012500000	-50.9126042850214	79.8996298522405	-0.463514683712703	-5.26699713186057	-0.454241408272526	-5.10703526384416	-41.2538924937132	26.9832940620814	
2015000000	-43.0591624350862	74.8004665398453	-0.465650471545404	-9.76077128519676	-0.454754714618627	-9.59293182873577	-39.8425394733552	48.2923139391526	
2017500000	-38.9854147190898	69.3720400778525	-0.464674809935945	-14.2422360883028	-0.4550829392791	-14.0753034154138	-37.702938237529	60.6937610924278	
2020000000	-36.3418612601093	64.685095977628	-0.466044399503572	-18.7315233141858	-0.456030651553944	-18.5630966445016	-35.6824344114908	66.304208165759	
2022500000	-34.3978769212935	59.7653905206897	-0.466520773691992	-23.2120370185124	-0.455302764548596	-23.0421096688435	-33.8863767102248	68.2840997068989	
2025000000	-32.8611215210786	55.5683197797745	-0.46654243045356	-27.6968177743096	-0.457050721048379	-27.5293236630185	-32.4733624446364	68.0367279061223	
2027500000	-31.6288000440545	51.2119868177129	-0.46770765371	-32.1866105063123	-0.456695608654601	-32.0188611571284	-31.2734981365549	66.7022314580216	
2030000000	-30.6072679466055	46.7116081665743	-0.467440632583309	-36.671513889094	-0.456029803782324	-36.5055496520597	-30.2564198933037	64.5590678958269	
2032500000	-29.7412788110746	42.3643442255379	-0.470089382872142	-41.1495582474312	-0.458662868734619	-40.9898145513382	-29.4138087781661	62.1708059294249	
2035000000	-29.0356263828171	37.8988760467886	-0.470244326476416	-45.6377973753732	-0.459133677115243	-45.4653016714847	-28.6825001119315	59.2113965521637	
2037500000	-28.4267767867107	33.3410849026473	-0.472439018404897	-50.1129601294012	-0.459574551566911	-49.947738645819	-28.0646750245532	55.9789072331936	
2040000000	-27.8976838529154	28.7928173313791	-0.473453053499194	-54.5846689020453	-0.461046191334445	-54.4193356370861	-27.5367431665709	52.625296155158	
2042500000	-27.4852783936177	24.2154113073157	-0.474089359134162	-59.0687810480029	-0.461845127317047	-58.9072861312282	-27.0854450566614	49.0282269904257	
2045000000	-27.1187156590429	19.700871921407	-0.47585281143311	-63.542567103012	-0.463541756792122	-63.379094227317	-26.7138896375567	45.3100483643996	
2047500000	-26.8175367817381	15.195727670528	-0.477069680814851	-68.020342008021	-0.465113617134465	-67.8547278153784	-26.4183257125671	41.6157056789328	
2050000000	-26.5895454171995	10.669939026585	-0.478279454181462	-72.4943143506728	-0.465347715850379	-72.3328580330075	-26.2018958066175	37.7954331381119	
2052500000	-26.4002870577892	6.02405749549584	-0.478967128197999	-76.9612120991899	-0.467613025255454	-76.7949705546944	-26.0253634945949	33.9444483764326	
2055000000	-26.2858730701625	1.48841027975033	-0.481102756631641	-81.4367109735487	-0.468651720931785	-81.2730628971713	-25.9091061991663	29.983941999694	
2057500000	-26.2214256298773	-3.1176761690693	-0.480859783977628	-85.9062319596294	-0.469346430225405	-85.7472437266152	-25.8425032776309	25.8444034011243	
2060000000	-26.1920838014627	-7.7933193467588	-0.481111408048163	-90.3802205808737	-0.469314982099912	-90.2197065923487	-25.8240859447506	21.7105811984789	
2062500000	-26.2155594183464	-12.4832380390952	-0.483107684428164	-94.8533354000409	-0.470827426628049	-94.6935473084911	-25.8517000207418	17.6358864501265	
2065000000	-26.2770795749169	-17.1761966091452	-0.483477193866444	-99.3246659565636	-0.470892735999429	-99.1633723012675	-25.9190071840641	13.4594752935975	
2067500000	-26.3984177362543	-21.8380605619087	-0.483944712147107	-103.798829549856	-0.471475658294645	-103.636208003481	-26.0473687062832	9.22608877252975	
2070000000	-26.547062888973	-26.5849340642318	-0.484627149041564	-108.269471980381	-0.471758454153929	-108.109218762887	-26.2333430774449	5.0178943424619	
2072500000	-26.7495129367937	-31.3559763721573	-0.484377588824765	-112.74797035052	-0.471898709118485	-112.583237508956	-26.4712991143862	0.633701037488461	
2075000000	-26.985531779552	-36.0616687715678	-0.484481576184038	-117.222309336418	-0.472351026024127	-117.054305440709	-26.7575284335146	-3.77707925054205	
2077500000	-27.298501187444	-40.8301216498985	-0.484309401286945	-121.694650143724	-0.472674262707697	-121.531953953356	-27.1071612131866	-8.12992045876126	
2080000000	-27.6866392219073	-45.7209358203193	-0.484675714744784	-126.169285233625	-0.472186516900414	-126.007576645298	-27.511928220906	-12.5269243326783	
2082500000	-28.1175396956492	-50.6788491015754	-0.484521620515517	-130.642647758168	-0.471822031073969	-130.482635978573	-27.9701034256119	-16.8893980182567	
2085000000	-28.6110045919348	-55.6318552069461	-0.484513390293225	-135.120732290107	-0.472389350757961	-134.954511616548	-28.5194306154877	-21.4122271592791	
2087500000	-29.1383439447352	-60.5919033000187	-0.484300495265279	-139.60096407968	-0.472132397229584	-139.436551345728	-29.1409886094475	-26.0887063719195	
2090000000	-29.7603434622829	-65.6692836938471	-0.483639797589211	-144.080561370784	-0.472065251857592	-143.913925351047	-29.8461865629403	-30.8602691287626	
2092500000	-30.4928882465988	-70.912156973854	-0.481922720728819	-148.555720562522	-0.471149959820179	-148.389557676985	-30.6419178297939	-35.7710013005945	
2095000000	-31.3146267022604	-76.013059076347	-0.480739358163226	-153.032182530402	-0.469184426733671	-152.865503720294	-31.5760795299239	-40.781711887939	
2097500000	-32.2387712539658	-81.5459427928892	-0.480752991902016	-157.510283489281	-0.468605356813476	-157.340383631752	-32.6502261999004	-45.8407936135478	
2100000000	-33.3005376112497	-86.9324294990936	-0.479575409532533	-161.987464390887	-0.468647722676636	-161.817651873643	-33.9206383834854	-51.2470043933101	
2102500000	-34.552736138	-92.8940966755479	-0.478920791972245	-166.468593989391	-0.46830463881164	-166.294060106215	-35.4243469998086	-56.865939293013	
2105000000	-36.0649809849872	-99.0181342516941	-0.47864660214444	-170.946253454076	-0.467521631722458	-170.779675879156	-37.266606020737	-63.5062105571379	
2107500000	-37.9100208066994	-106.099073482127	-0.478690713552499	-175.425278954064	-0.466888382168691	-175.253039368207	-39.6034610474069	-70.7604491769571	
2110000000	-40.2813453630389	-114.605899365384	-0.478835979602434	-179.906332211665	-0.468221738330749	-179.73541900582	-42.7137258867276	-80.8916139214232	
2112500000	-43.4484601564733	-125.82175105077	-0.478589667195092	175.603033106799	-0.467922701355576	175.780076784172	-47.3103015178742	-98.8186480239195	
2115000000	-47.8606709132817	-145.897914848541	-0.478970860598906	171.108339167892	-0.468001067965562	171.296131716488	-52.8545367236263	-151.52534913962	
2117500000	-52.3946373409517	160.090247474988	-0.480000718415059	166.625323756446	-0.468730895178055	166.814055702005	-48.7884549302653	141.929241465258	
2120000000	-48.7139595765206	100.539484081802	-0.479994024552106	162.137148784794	-0.469717454182316	162.32457119754	-43.8982892050048	118.451468641924	
2122500000	-44.0036885890723	77.3886445656319	-0.480737637380782	157.654594544343	-0.470659834422808	157.84047085347	-40.5948479768976	107.088598592657	
2125000000	-40.7952681078517	64.9676295640596	-0.481120316513861	153.162874929029	-0.470504894897914	153.347568646807	-38.245907358636	98.8241886695153	
2127500000	-38.4348358659809	56.4024485467544	-0.480805066016097	148.674814111565	-0.471351266672672	148.866532772621	-36.3935551896994	91.7852214863565	
2130000000	-36.5797225118866	49.326939978954	-0.481128888526296	144.185894197541	-0.472211059882051	144.3809479473	-34.9251881585801	85.3660546638623	
2132500000	-35.1317003264202	43.1285490548633	-0.481978562676298	139.703162012061	-0.47295590435369	139.896350992459	-33.7245290427699	79.6177115677179	
2135000000	-33.884026721661	37.4501652212884	-0.484168942884464	135.225189503773	-0.472599346250613	135.41458666668	-32.7090420678964	73.8924511594049	
2137500000	-32.862026629434	31.9694454129007	-0.484935298743562	130.739411776536	-0.474882745723345	130.934606146998	-31.8199979899256	68.580878362771	
2140000000	-31.970549389416	26.5116955113281	-0.487119252971016	126.256528898581	-0.476044912190006	126.452757661005	-31.0626490474589	63.2463523193615	
2142500000	-31.2027209062052	21.1740026109408	-0.488397652773218	121.770286980409	-0.477747168700765	121.972762974814	-30.4158634048379	57.8248387269411	
2145000000	-30.4812817728059	16.1435033164454	-0.489138430713617	117.28846158457	-0.478418393877688	117.498744407522	-29.8288002928103	52.2992263890395	
2147500000	-29.8959333252016	11.1153339017945	-0.491078943747975	112.810521745037	-0.480055553529356	113.025217415615	-29.336744047154	46.9349559577431	
2150000000	-29.3652142510809	6.23718734631741	-0.492860575792615	108.34125390811	-0.481776136934419	108.553603320348	-28.9108370893712	41.520506572673	
2152500000	-28.9035558703874	1.28105863641619	-0.49442086615399	103.86139635656	-0.483126483436045	104.078891786077	-28.5421265981861	36.2246257562701	
2155000000	-28.4912426517655	-3.69039692217582	-0.495532231681887	99.3946086309335	-0.484690157834717	99.6037379093703	-28.2213172001348	30.9114218787649	
2157500000	-28.1488763383957	-8.39393924693682	-0.496118180473688	94.91606511339	-0.484926922003281	95.126678528958	-27.9506092351718	25.5288208985989	
2160000000	-27.8449639867747	-13.2518955652	-0.496356575093618	90.4356664335115	-0.485859632703739	90.6437461731545	-27.7212611066418	20.2006837781074	
2162500000	-27.5913079520571	-17.9812684966275	-0.497390687552817	85.9630080634855	-0.486711873247787	86.1680988796142	-27.539164078355	14.7387182134547	
2165000000	-27.4015457445038	-22.7155974310691	-0.49841027480144	81.4860930162249	-0.487815253121014	81.6978405120401	-27.4007811625133	9.30652214945683	
2167500000	-27.2040763834075	-27.3467908172015	-0.499075877684927	77.0111516206855	-0.487760393129539	77.2207660323259	-27.309082512823	3.87791711490965	
2170000000	-27.0890080324537	-31.9207794542738	-0.499760441191369	72.5347130172864	-0.487879406696259	72.7465350657097	-27.2323307780042	-1.59070488266276	
2172500000	-26.9971142998905	-36.4882508516889	-0.500743635860083	68.0550491766493	-0.488215256161764	68.2710486483126	-27.1952179248744	-7.17228655990148	
2175000000	-26.9481270159795	-41.0610271421231	-0.501329105735505	63.5717572922613	-0.48882176581182	63.7957830770709	-27.1692604056243	-12.7030324713386	
2177500000	-26.9352939200407	-45.4523088540931	-0.501750234387486	59.1017452727872	-0.490265159371812	59.3168741097895	-27.1923703760077	-18.4166493893026	
2180000000	-26.9564789424753	-49.7041609099699	-0.502520120377553	54.6216257819678	-0.490334813651039	54.8446347701405	-27.2564378897215	-24.0327975431193	
2182500000	-27.0187961225658	-54.0154436329611	-0.502107438401966	50.1430015937574	-0.490771142090938	50.3662365773399	-27.3561346960222	-29.6708654527695	
2185000000	-27.1282797544676	-58.2679880101162	-0.502187111487876	45.6654429983928	-0.490895106522684	45.8880740691817	-27.5008212580329	-35.2945884480003	
2187500000	-27.2714943609495	-62.5156969109372	-0.501923230649175	41.1864043786174	-0.489083750681439	41.4083937685144	-27.6581098723355	-41.0048267606423	
2190000000	-27.4569130838588	-66.6022718896108	-0.501347935177763	36.7049370188734	-0.488515424884851	36.9275154495436	-27.8495697514844	-46.6732212573861	
2192500000	-27.6833907804818	-70.6130691979965	-0.499932341683243	32.2271980993565	-0.488438963214265	32.4577529155902	-28.0822102683016	-52.503061028045	
2195000000	-27.9665841916822	-74.4883120682836	-0.500249446163824	27.7482680269486	-0.487582089991687	27.984476659863	-28.3757808174023	-58.4410137604064	
2197500000	-28.2947178566464	-78.1486678476243	-0.500341482692776	23.268683066281	-0.486982165622287	23.5100353654972	-28.7216469259761	-64.4542045742294	
2200000000	-28.6912842955063	-81.6989638285274	-0.498865542330636	18.7920382767229	-0.48708365607429	19.0345666608943	-29.105930008604	-70.6292872396592	
2202500000	-29.150240793685	-85.0808746752089	-0.498798134067704	14.3172488004415	-0.486518844986595	14.5602223390341	-29.5589958908953	-76.9787508708221	
2205000000	-29.6947636776435	-88.3806680142669	-0.499928836688863	9.83914791570537	-0.485781670227038	10.0754394299594	-30.0438715690513	-83.3387513822842	
2207500000	-30.3489619194525	-91.3965363570154	-0.499424085626687	5.35540395263594	-0.486429755022622	5.59958597585113	-30.6168547739735	-90.0153644101847	
2210000000	-31.0915677738977	-94.0934672329962	-0.498717414726403	0.875823741268664	-0.487080722282488	1.11878581810139	-31.2658966149239	-96.9864122026203	
2212500000	-31.9410669484946	-96.3709747207751	-0.499445318077563	-3.61113480469749	-0.487216094523291	-3.36612982936832	-32.0059202600246	-104.423048534917	
2215000000	-32.9133707956448	-97.8413035324692	-0.499813712658384	-8.10281500911224	-0.486856126096078	-7.84583518638545	-32.8926725058809	-112.379134397655	
2217500000	-34.023938472753	-98.3247667939919	-0.499344705664383	-12.5881931447832	-0.486587400250997	-12.3341158404206	-33.8707510772965	-121.014771861443	
2220000000	-35.3407203386627	-97.554201231681	-0.500271033150102	-17.0765133703413	-0.486577817245036	-16.8215917624319	-34.9814276956176	-130.685914044137	
2222500000	-36.9196271831276	-94.387070227277	-0.499001243341128	-21.5602841076332	-0.486917740327581	-21.3043477879679	-36.2738898094089	-142.149453874361	
2225000000	-38.5873934545004	-87.4014763822401	-0.499387816300983	-26.0497604514927	-0.487582808155499	-25.7837463162968	-37.6606040305406	-156.281333443837	
2227500000	-40.1109179110846	-74.9268154120507	-0.499833038854282	-30.531923995746	-0.488673137020291	-30.2762345973699	-39.0208029188167	-173.771831048514	
2230000000	-40.8184216108995	-56.5321037371662	-0.499679983188099	-35.0184223916915	-0.489176343420716	-34.7590467720599	-39.9805469362238	163.894215701481	
2232500000	-40.0819846395341	-38.0071420095377	-0.501162926098118	-39.5026532777493	-0.490549094521173	-39.2498929356594	-40.1310186024389	139.366956332363	
2235000000	-38.5938794639344	-24.7780971215422	-0.502929736634229	-43.9894375808896	-0.491301600458262	-43.7385689968358	-39.2800052557926	115.363971416649	
2237500000	-36.7065007767847	-16.8146608558169	-0.504278099732081	-48.4720910650603	-0.492387174857955	-48.2237432810314	-37.7232152013203	95.9439035439449	
2240000000	-34.9810917552016	-12.7735997403033	-0.505000609714019	-52.950664033155	-0.493237720395421	-52.7102580216632	-36.137448185269	80.9247358134131	
2242500000	-33.426851532585	-11.6314150989477	-0.505209019259639	-57.4388217130475	-0.493854275052038	-57.1914789203432	-34.655824549845	68.9380284514112	
2245000000	-32.1371273482713	-11.910028015209	-0.506498948422492	-61.9207903808259	-0.494887225407621	-61.6706407440591	-33.276472475053	58.8327486653326	
2247500000	-30.9573733945263	-13.0875044771214	-0.507401343049344	-66.4013089303708	-0.496164538047947	-66.1530256366278	-32.0946659040239	49.8989294749023	
2250000000	-29.9144269865968	-14.8739377117283	-0.508330326550772	-70.8879933243374	-0.497469604575372	-70.6476099790584	-31.0324699163911	41.9114142556557	
2252500000	-29.0285675953553	-17.1202692218058	-0.509021129912386	-75.3748397516164	-0.498409038245348	-75.1190688103047	-30.0497164437728	34.7375929631401	
2255000000	-28.2411637359445	-19.7080178504056	-0.509107282521448	-79.8501994222222	-0.499128382629745	-79.5993321659984	-29.174178153264	28.0316142566993	
2257500000	-27.5325159828831	-22.507271432365	-0.511643575840367	-84.322873337342	-0.500582676657469	-84.0800278590897	-28.4006147683614	21.6250029395123	
2260000000	-26.9011228065902	-25.3372719258607	-0.512124297776729	-88.801405792693	-0.501964719407283	-88.5612032777535	-27.7360060419096	15.5686829754027	
2262500000	-26.3363029170338	-28.3176549784837	-0.514273843343283	-93.2758260126402	-0.503597722287119	-93.035712560785	-27.1445679478713	9.64105575707199	
2265000000	-25.8514988608904	-31.2833957117583	-0.514194438643435	-97.7585415931961	-0.504147045775878	-97.5099733638566	-26.5902241611841	3.85497885124366	
2267500000	-25.4262128827707	-34.6046182282399	-0.515908476369578	-102.227424558723	-0.506865656249653	-101.985481960178	-26.1143134558388	-1.73125151142378	
2270000000	-25.0411626938156	-37.7811527143553	-0.516337271952785	-106.701100899351	-0.507211516529567	-106.455788627593	-25.697184266638	-7.20794776061833	
2272500000	-24.7242134689554	-41.1161015690226	-0.518019170047697	-111.178658952119	-0.509159046048698	-110.931298344843	-25.3099541783962	-12.6254136660427	
2275000000	-24.4482825941713	-44.386188110534	-0.518912274160399	-115.64768550361	-0.510151832306602	-115.407092842691	-24.9942161774081	-17.9073314595455	
2277500000	-24.2186648580116	-47.680744575064	-0.518827544587258	-120.12570423078	-0.510899205445542	-119.883429079669	-24.7218368182786	-23.1669624829628	
2280000000	-24.03513683382	-50.9611304117964	-0.520226680791265	-124.60445303343	-0.512027683646587	-124.359278477953	-24.5004920661297	-28.3576021676722	
2282500000	-23.8925609224424	-54.2101470983147	-0.519490371682679	-129.077149442757	-0.510968983896542	-128.826857526271	-24.3166756446452	-33.4774746553712	
2285000000	-23.7904744042901	-57.4059772088832	-0.52040031086143	-133.54998249259	-0.512208824432111	-133.300966335606	-24.1878714295402	-38.5806487150788	
2287500000	-23.7408682159557	-60.6243197206062	-0.519944331310227	-138.023002411153	-0.511440680030669	-137.77319093641	-24.0971167462552	-43.6496837555815	
2290000000	-23.7314058531958	-63.8650651253192	-0.521295237926145	-142.497805408676	-0.51142361658227	-142.243700898195	-24.0546669193287	-48.6858330143943	
2292500000	-23.7814688448774	-66.9980683171054	-0.521165159026709	-146.967885698906	-0.512104295715626	-146.712784597015	-24.0649333840956	-53.7886883709155	
2295000000	-23.8806977293716	-70.0374347477146	-0.520489404355829	-151.432998475778	-0.511688468172494	-151.183310509176	-24.1458735495437	-58.7837085960412	
2297500000	-24.0111415685445	-73.040220019714	-0.520499002126381	-155.906138316138	-0.511496996813068	-155.654692561679	-24.256330221496	-63.8245684537495	
2300000000	-24.2077881800919	-75.9216253276109	-0.520066962738315	-160.371501434338	-0.511686958397819	-160.117804842596	-24.4168201738496	-68.8425518241721	
2302500000	-24.4455711182873	-78.6560100881125	-0.519790626520987	-164.841279760916	-0.510948675686519	-164.592614988854	-24.6433120333228	-73.9241706877435	
2305000000	-24.7511917385921	-81.2249344251487	-0.519423000450457	-169.308201750443	-0.510722513681192	-169.059264522111	-24.9349312121355	-78.9546912937625	
2307500000	-25.1025931765203	-83.5728545584946	-0.519005809922232	-173.785065118301	-0.509757956447551	-173.535472803338	-25.3005640593993	-84.1549177511945	
2310000000	-25.5156228966072	-85.6643716845686	-0.518312642347502	-178.261291175562	-0.508949061377933	-178.017380223572	-25.7427708516401	-89.3517896635546	
2312500000	-26.0065385241992	-87.4728328759368	-0.518029517765701	177.264748483315	-0.507608906060622	177.506149720821	-26.2606527177681	-94.6408895984963	
2315000000	-26.5565137970743	-88.909015533537	-0.516085143612698	172.786618425617	-0.506214055774329	173.029742698337	-26.879570101914	-99.9675742357388	
2317500000	-27.1847913922457	-89.8482486737078	-0.515959904743803	168.309440776187	-0.506542078080266	168.550899827274	-27.6188656670202	-105.523143857373	
2320000000	-27.8804901423984	-90.1189905055992	-0.515506528577841	163.822304945546	-0.505103434619783	164.069813407346	-28.4842884983214	-111.374841015691	
2322500000	-28.6812859166638	-89.4388907678337	-0.514950802615651	159.339073696899	-0.505662257111362	159.583561595576	-29.497814780439	-117.518394612616	
2325000000	-29.5039060488291	-87.632997225548	-0.514512271308674	154.85808495991	-0.505335634790735	155.096145357775	-30.7304256631971	-124.356521217265	
2327500000	-30.3497008556099	-84.2164286752927	-0.514649653549704	150.373013776564	-0.505008307336517	150.606849868554	-32.2572795394292	-132.156679933	
2330000000	-31.1595286846353	-79.0543527933351	-0.513897598252857	145.88289621322	-0.50425200737293	146.120414087288	-34.1584309548325	-141.482121059949	
2332500000	-31.7869227857044	-71.8659068693641	-0.514431384973081	141.400709434787	-0.504535679510795	141.636632872085	-36.5574724687322	-154.145786584162	
2335000000	-32.0757716211319	-63.4677860621508	-0.514478693396989	136.912297516778	-0.505683379390925	137.142790819505	-39.5144546450679	-174.747385784907	
2337500000	-31.967941131252	-54.3757441547146	-0.51563784395393	132.422508195644	-0.506134325635045	132.654560767093	-41.9311018701069	148.8519973807	
2340000000	-31.4434208410145	-46.0929743278199	-0.517067400242333	127.940546757495	-0.506862046804811	128.164979205341	-40.946743774141	104.541339489668	
2342500000	-30.6204450215588	-39.4931175163867	-0.518560334344378	123.45084468433	-0.507045151443374	123.677288445146	-37.7206124220867	76.7773243166232	
2345000000	-29.6470226353143	-34.5635688656159	-0.51851090733968	118.965638378875	-0.508547094826638	119.191948060938	-34.8936115634857	61.0286575379368	
2347500000	-28.637373245931	-31.6037012482813	-0.519855434844141	114.480209756274	-0.509634495991016	114.707440027291	-32.5978940771233	50.219965085815	
2350000000	-27.6655903118846	-30.0986285471891	-0.523238501261084	109.999748151716	-0.511143826532982	110.217011504178	-30.7010222997238	41.8164940988246	
2352500000	-26.7310158127517	-29.6441050890576	-0.524456776118529	105.516090807603	-0.512993381529173	105.737957789937	-29.1853288843854	34.710528856399	
2355000000	-25.8942656227709	-30.0514951771821	-0.525863378627219	101.034968436032	-0.516173192326491	101.260634902929	-27.8801825809949	28.4237280547459	
2357500000	-25.1264755530907	-31.0869148168004	-0.528927698456741	96.5565252870684	-0.518342954747274	96.7759279590475	-26.7624994560171	22.5732496091448	
2360000000	-24.424798482467	-32.661379952101	-0.530506272656341	92.0782864456156	-0.521739060582929	92.2962051364312	-25.8079283777263	17.1365502045151	
2362500000	-23.7906287228104	-34.6616317895947	-0.534318946093316	87.6036158897481	-0.524022073657191	87.8124523925629	-24.9744170612627	11.8251698171221	
2365000000	-23.2327091173172	-36.8910297019002	-0.537376167592349	83.1245637876012	-0.526508519105457	83.3347674839221	-24.2477172939924	6.73927437754773	
2367500000	-22.736268746464	-39.3554596073824	-0.539903295474777	78.6517938543524	-0.528550082830743	78.855902937159	-23.616202470835	1.84448494246967	
2370000000	-22.3099723298324	-42.0447047978519	-0.543387632069329	74.1799942666201	-0.531151345191131	74.3759236439966	-23.0672489659015	-2.98747006428206	
2372500000	-21.9264566986738	-44.9632237556133	-0.54563169610378	69.7056382110153	-0.533683318721535	69.9073995617896	-22.5990836401457	-7.67248196983789	
2375000000	-21.614483783483	-48.0368828742195	-0.547786871116229	65.2394145077431	-0.536503843447104	65.4345619009049	-22.2032258407161	-12.3162398395943	
2377500000	-21.3427845502397	-51.145123719263	-0.549811143721997	60.7707144534673	-0.538417149743191	60.9674681257562	-21.8568867296948	-16.8600224652918	
2380000000	-21.1250391096404	-54.3001427928153	-0.551389177333085	56.3018110337987	-0.539705859739394	56.5006443668214	-21.5713635580865	-21.3314992000686	
2382500000	-20.9553346903251	-57.5461854314233	-0.553373598069266	51.8406420907343	-0.54163225362719	52.0320911386828	-21.3459513560257	-25.7867114927016	
2385000000	-20.8391859648883	-60.8448361501267	-0.554189115627623	47.3775440569147	-0.543260155035182	47.5661696487384	-21.1752615056804	-30.1107855253642	
2387500000	-20.777356151186	-64.2268797010278	-0.555475020016809	42.9158989153052	-0.544598719821066	43.1039167637003	-21.060094326108	-34.4623312588852	
2390000000	-20.7585157281574	-67.6436440000124	-0.555971695732185	38.4606329474192	-0.54558583736343	38.6402166599412	-20.9981009136988	-38.735171729647	
2392500000	-20.7929342335676	-71.0894292115602	-0.555772855095629	34.0019513496572	-0.545287612958051	34.177562830792	-20.9858061304002	-42.9238164616569	
2395000000	-20.8712231297759	-74.5644372848945	-0.555428586463416	29.5403451187261	-0.545243025839495	29.7168903248646	-21.031764159118	-47.0452546398299	
2397500000	-21.0068763773242	-78.0216397717337	-0.555212896200336	25.0831517490724	-0.544656262361222	25.2552012293015	-21.1291561548183	-51.1038877222958	
2400000000	-21.1979202496818	-81.519893930795	-0.553857114385681	20.609748946512	-0.543800508814951	20.791805901107	-21.2751045493203	-55.0991422702582	
2402500000	-21.4453674790714	-84.9522568667326	-0.553745199862797	16.1605148564526	-0.543018352980502	16.3292581755071	-21.4903169350594	-59.0509159506245	
2405000000	-21.7561554939421	-88.391740415349	-0.551757850797023	11.6965120463522	-0.541963566706259	11.8625489144792	-21.760799540995	-62.8722212287837	
2407500000	-22.1357809470536	-91.7932126126891	-0.54990009313363	7.23116131924739	-0.539946822479126	7.39559082531569	-22.0979498742676	-66.5884293268603	
2410000000	-22.5866533180787	-95.1876701826543	-0.547855663652735	2.76468537335212	-0.538924022041962	2.92464242901746	-22.5128559332486	-70.1491257625939	
2412500000	-23.1318117258816	-98.4257920281134	-0.546024166447307	-1.71087476389951	-0.536238414249432	-1.55625394640272	-22.9932116866024	-73.5484826060894	
2415000000	-23.7651352646845	-101.579455310642	-0.543763418736562	-6.1957050336867	-0.534117653042024	-6.03338756157844	-23.5697223422485	-76.7115159234446	
2417500000	-24.5132824879845	-104.632473345426	-0.541874016859341	-10.676598504866	-0.532535660828092	-10.5127903662583	-24.2522664713803	-79.6284523964811	
2420000000	-25.3870709687354	-107.404135487382	-0.540807465480627	-15.1619873456607	-0.529793011753579	-14.9979870991652	-25.037175364124	-82.2543032364351	
2422500000	-26.439019612797	-109.998744396739	-0.537541051116633	-19.6414733859679	-0.528920298718064	-19.485628417036	-25.9448617398041	-84.2476371812098	
2425000000	-27.7001913292693	-112.058442509906	-0.535268571690804	-24.1302887328134	-0.527217270633564	-23.9716782393184	-27.0186223099569	-85.5058110519501	
2427500000	-29.2286715991554	-113.341706051443	-0.533965772353472	-28.6199479809718	-0.526340230262059	-28.4673389489578	-28.2611272633841	-85.7014872527302	
2430000000	-31.1439434423725	-113.187545263942	-0.531493767402744	-33.115136777012	-0.525808719845012	-32.9562762791599	-29.7054626572297	-84.0768218013684	
2432500000	-33.5329638785609	-110.08789583789	-0.532094042816445	-37.6107551172755	-0.524382912600676	-37.4597534155408	-31.3501078503352	-79.5996067063602	
2435000000	-36.5962081529196	-100.691993584303	-0.532437391895388	-42.1077599919603	-0.523441959849434	-41.9506125540895	-33.0522896245041	-70.7521144616026	
2437500000	-39.7592249841239	-75.5529082161579	-0.532637059631124	-46.5985480701283	-0.523515812453074	-46.4519838653782	-34.3842187117792	-55.8301797749443	
2440000000	-39.5672117590645	-36.1200768984976	-0.534238527864186	-51.0949774670103	-0.522309958772174	-50.9475723877902	-34.5796454411373	-36.6625517429358	
2442500000	-36.2947720582909	-12.1265450267434	-0.534267188418896	-55.5876615423546	-0.524010405480647	-55.4438595492297	-33.4332859934682	-19.8973293787113	
2445000000	-33.2158600677201	-3.14084572237616	-0.534832028173531	-60.0826459294128	-0.525740973786273	-59.9371340565428	-31.705575062714	-9.24738536709635	
2447500000	-30.7752759931959	-0.292056285637793	-0.536315587552577	-64.5782002035772	-0.528301820322927	-64.4289595670351	-29.9502487879951	-3.73995018124346	
2450000000	-28.8549857316257	-0.110952662309489	-0.538307784569546	-69.0633737654769	-0.529266007442023	-68.9157363066726	-28.3820784428061	-1.28940674767794	
2452500000	-27.2829114423584	-1.33085215452509	-0.54069970510775	-73.5498201438997	-0.532157299757281	-73.4017432571792	-27.0047567958098	-0.921331151922002	
2455000000	-25.9844507437344	-3.39394673956218	-0.543675342293336	-78.032961468522	-0.535124537740151	-77.8932430896334	-25.819190932463	-1.82837506776377	
2457500000	-24.8869486109337	-6.03156605130253	-0.547191533643974	-82.5179311086949	-0.53856610244002	-82.3767022666328	-24.7870276137855	-3.59027598228259	
2460000000	-23.9582050429181	-8.93006141989397	-0.549877214303655	-87.0006056919343	-0.5418460218217	-86.8697433153047	-23.9012560922919	-5.89166277126921	
2462500000	-23.1603976174476	-12.1053612742164	-0.553151357523245	-91.4829644509589	-0.545205035752166	-91.3482708237087	-23.139575150469	-8.50864316124781	
2465000000	-22.4799586738084	-15.3751277315208	-0.55778009666818	-95.9602721850794	-0.548032550880189	-95.8202864873768	-22.4782558556987	-11.5123575296339	
2467500000	-21.8865972955864	-18.7973736235582	-0.561739240281091	-100.429786815958	-0.552161204691042	-100.299289055315	-21.9016026423869	-14.6780838423807	
2470000000	-21.3795556065626	-22.2761507101688	-0.565060224922335	-104.9060923702	-0.555096055110834	-104.763394178711	-21.4159542346352	-18.0249900290425	
2472500000	-20.9564446902007	-25.8284908545909	-0.567952267528975	-109.381738371491	-0.55875236361044	-109.233214689435	-20.9915165859017	-21.4852889150678	
2475000000	-20.6016971364747	-29.3945857677128	-0.570866213532213	-113.84507035046	-0.562015244860568	-113.706458748489	-20.6421168814635	-25.0498902663234	
2477500000	-20.316089906829	-33.0224360043548	-0.574010990543776	-118.31299953149	-0.565091554805826	-118.17347405165	-20.3590287365056	-28.6960173999851	
2480000000	-20.0864310015093	-36.6638436613582	-0.57662946470875	-122.779331003876	-0.568567535298706	-122.633721734588	-20.1368540437485	-32.3988511894229	
2482500000	-19.9221450118272	-40.3284346272805	-0.578508737565653	-127.230618911454	-0.570009430191217	-127.09830441989	-19.979856887212	-36.1204531507616	
2485000000	-19.8147318033228	-43.9935589024203	-0.579245232294906	-131.690306802237	-0.570700073050019	-131.552754637006	-19.8700002361078	-39.9055111301197	
2487500000	-19.761814777334	-47.6750496766159	-0.580393055089464	-136.148520437582	-0.571441438922923	-136.014203783181	-19.8223809127512	-43.6879328616765	
2490000000	-19.7653546255667	-51.3200973678882	-0.579337725482739	-140.605543018855	-0.571376669592017	-140.469447595541	-19.8218964813523	-47.5028993959669	
2492500000	-19.8228774123511	-54.962635583629	-0.580607141700303	-145.061365763283	-0.571462172344759	-144.924387146332	-19.8842981058633	-51.3351663740972	
2495000000	-19.9329464490042	-58.5751456624426	-0.580667233023433	-149.518301326088	-0.571036097316753	-149.386948402661	-20.0044080820653	-55.1950065790339	
2497500000	-20.1098006204205	-62.152307257332	-0.579742334643944	-153.975072864736	-0.57057426943301	-153.841926070485	-20.1854283629597	-59.0348104819161	
2500000000	-20.3370052007669	-65.653114971095	-0.578485359193777	-158.429550632269	-0.568788755633784	-158.304400963566	-20.4335548511174	-62.8359515821873	
