!Agilent N9923A: A.05.17
!Date: Sunday, 01 January 2006 12:39:15
!Model: N9923A
!Serial: MY50371189
!CHECKSUM:2087716751
!Correction: S11(ON Q)S21(ON Q)S12(ON Q)S22(ON Q)
!S2P File: Measurements:S11,S21,S12,S22:
# Hz S DB R 50
500000000	-37.1729823964508	91.5944833582917	-0.160830267975504	-177.891885542719	-0.156084671509874	-177.933056486082	-35.8921098204662	68.5927202959963	
502500000	-36.9457999964272	84.7997312330602	-0.161715775145335	177.625999145904	-0.156397866181537	177.584997756954	-36.0411144828635	70.1309108840639	
505000000	-36.7841906820305	78.0030791092192	-0.162001576663014	173.143028832211	-0.15701637729598	173.105469196345	-36.1434909014604	72.0299920800368	
507500000	-36.6685896458337	71.1369313892913	-0.162265996163966	168.660487720068	-0.157355858742344	168.622172289698	-36.1793753539075	74.1082545835432	
510000000	-36.5946179653598	64.405325031537	-0.162637760700715	164.177453703016	-0.157988608026508	164.139575927672	-36.1815722751492	76.153435473268	
512500000	-36.5492447559048	57.6427716263558	-0.162876099588539	159.69007254369	-0.158556310615095	159.652249224356	-36.088373191182	78.5166440239152	
515000000	-36.5324112143982	50.5905276485104	-0.163322184663439	155.205151208313	-0.159349352408354	155.165519270372	-35.9641766860213	80.5797628042471	
517500000	-36.5506333497884	43.7522389516466	-0.163745140394208	150.719326296684	-0.159881560703971	150.679689493861	-35.7491212784738	82.5727674629415	
520000000	-36.5745423760913	36.7050024192469	-0.164073821440488	146.232526093038	-0.159792827293765	146.192019121504	-35.4947265720308	84.2108017198891	
522500000	-36.6648216905857	29.6292450136963	-0.164769512000238	141.744850444628	-0.160093560335205	141.706409187843	-35.215232456713	85.3393682117697	
525000000	-36.8266641802857	22.2033113854997	-0.165148059257537	137.25911653664	-0.16096737870727	137.220946013789	-34.8913474201928	86.2557540918941	
527500000	-36.9874230788039	14.6405442673236	-0.165713840753015	132.771533761681	-0.161532187825535	132.73499003743	-34.5815681177841	86.8532462690254	
530000000	-37.108906910114	6.84441198004053	-0.166452823687981	128.283303809318	-0.162145286439279	128.247279513963	-34.2701003072716	87.0699981120373	
532500000	-37.2609376940882	-1.02215411053898	-0.166745998619377	123.798166222257	-0.162407882582533	123.762935787373	-33.9720702335925	86.9039401871528	
535000000	-37.4010939334024	-9.40483507813418	-0.167205809594821	119.310938677794	-0.162807158973217	119.277660805474	-33.6973730185745	86.5017584563557	
537500000	-37.5237716851799	-18.0546913106071	-0.167759280458244	114.825876099031	-0.163460799151839	114.791336902288	-33.4359443194825	85.7773271747536	
540000000	-37.6622339961096	-27.1684411448956	-0.167922027520123	110.342866679293	-0.163854385511724	110.30739808572	-33.213565860605	84.6873021830113	
542500000	-37.7780943314993	-36.0978890392411	-0.168884549266417	105.861238959612	-0.164297781869689	105.824821916139	-33.0050878121624	83.642304753148	
545000000	-37.8276342054238	-45.1556708442157	-0.169031963256867	101.377908870432	-0.164739448541925	101.342399874078	-32.8500668960594	82.3846621194569	
547500000	-37.8610003770624	-54.5364784601498	-0.169276559016014	96.8960787631709	-0.165449146498417	96.8625808434546	-32.701114799096	80.974518117051	
550000000	-37.9028733342852	-64.0365053288924	-0.169785948720666	92.4144079518796	-0.165377268655552	92.3854946907	-32.5853987933673	79.5672188956708	
552500000	-37.8367530971443	-73.3645775748664	-0.170139680015852	87.9341039199671	-0.165875309439591	87.9022068392088	-32.5174587543448	77.8700964642498	
555000000	-37.7606085896275	-82.6723267701904	-0.170449092569255	83.4503572539667	-0.166630476642219	83.4216942020428	-32.4874766809429	76.3538663003603	
557500000	-37.6680507257254	-91.9762904525991	-0.171093909102123	78.9693316768969	-0.167235803398723	78.9394267439321	-32.491192679224	74.7004670871791	
560000000	-37.5357252389356	-101.186953228108	-0.171670779558041	74.485193801622	-0.167348949390799	74.4540898353762	-32.5157619160874	73.052649923315	
562500000	-37.3614547171203	-110.105912230591	-0.172004090477034	70.0008161677535	-0.167626010987076	69.9684075441315	-32.5751871199999	71.2360247810381	
565000000	-37.1534842958022	-118.826206094941	-0.172460267034806	65.5133904146044	-0.16812560302063	65.485211198595	-32.6667010965995	69.5058824061174	
567500000	-36.9575263577237	-127.451671199912	-0.172840315244594	61.0283726036498	-0.168662662802312	61.0010349307728	-32.7938310625376	67.886723541562	
570000000	-36.7598631182904	-135.773955812007	-0.17324993537873	56.5417221754902	-0.169365358389869	56.5139087407554	-32.9526098217265	66.3781659593088	
572500000	-36.5865682246687	-143.866576322022	-0.173833569865195	52.0569162948767	-0.169839437057417	52.0291868263726	-33.1716680741266	65.0828059405494	
575000000	-36.4181124585769	-151.687339938619	-0.174190555327674	47.5700128321553	-0.170029732143769	47.5430223219686	-33.4256469642194	63.9592684712243	
577500000	-36.2669495194802	-159.492118503979	-0.174520733939274	43.0842719119503	-0.170627578151924	43.0559927742656	-33.6941561972767	62.8759358914805	
580000000	-36.1396890434543	-167.202908534651	-0.174955839849474	38.5966827587327	-0.17186979872212	38.5676039584091	-33.9866138521249	62.011603880424	
582500000	-36.0056305520598	-174.616143265312	-0.175308288882854	34.1110995461454	-0.171788674531779	34.0825934604379	-34.3013755219622	61.4674679923456	
585000000	-35.8914914584499	177.835847259238	-0.175817263041201	29.62500305753	-0.17238050315461	29.5970493311859	-34.6251001851484	61.3115527292921	
587500000	-35.8003440430234	170.461941747796	-0.175917809449244	25.1398783635869	-0.17257035541111	25.1103198257744	-34.9883157729985	61.4055331802591	
590000000	-35.7343588660424	163.021472346735	-0.176399735003726	20.6549952494522	-0.17287864349747	20.6272344760318	-35.3180579087665	62.0526638204016	
592500000	-35.6931747282154	155.752252308599	-0.176633625252674	16.1702112201746	-0.173284213240901	16.1426428792712	-35.6527194790308	63.1460823014283	
595000000	-35.6831772915425	148.288299223907	-0.176590742241079	11.6861969615069	-0.174088116565321	11.6584877498123	-35.9339941920702	64.4700119382319	
597500000	-35.7028114863437	140.852552158511	-0.17720367024442	7.20638593270769	-0.173891637341523	7.18066110305649	-36.179387415529	66.3076921749499	
600000000	-35.7615642876234	133.377685554534	-0.177218754862194	2.72514417215844	-0.174760408916734	2.70091501063641	-36.3488097772589	68.2939256075388	
602500000	-35.8132097687495	125.48667896337	-0.177926764302485	-1.75922901652936	-0.175299912778638	-1.78285727778723	-36.4568103322653	70.4191157956607	
605000000	-35.8976691998793	117.424960793767	-0.178730242671819	-6.2412328053159	-0.175930436541959	-6.26457076901821	-36.4752779609723	72.6170981213419	
607500000	-35.9664319919229	109.398933373337	-0.179061618465321	-10.7259429096914	-0.176501479780047	-10.747056783705	-36.4466129586687	74.8361189153014	
610000000	-36.0448580977018	101.115165189181	-0.179720017806373	-15.209287723538	-0.177286774751871	-15.2321603580136	-36.2929526634887	76.6572578736881	
612500000	-36.1380950023313	92.6757374563218	-0.180509344285132	-19.695147075067	-0.177779036192144	-19.7161514225689	-36.1024921996238	78.3903078288635	
615000000	-36.2600157224259	84.0492493926881	-0.1812324742837	-24.1783534599961	-0.178606249454383	-24.2009404711338	-35.8321231709779	79.732085432763	
617500000	-36.3101464618472	75.1959523724495	-0.182337818397876	-28.6657427926024	-0.179400714376198	-28.6865108866335	-35.5356650694489	80.570733124664	
620000000	-36.3840205984675	66.0938406267662	-0.182500262164536	-33.1529772817017	-0.180098258661292	-33.1707307458907	-35.2312382266788	80.8627663050948	
622500000	-36.4314487307502	56.9658197492112	-0.183415097844472	-37.6400076245443	-0.180586958913064	-37.6573496479183	-34.9132385921861	80.6748400180316	
625000000	-36.4383233659209	47.5147560259643	-0.184173178497786	-42.1253527153321	-0.181430121983674	-42.1461609476782	-34.6283586934861	79.9891385119461	
627500000	-36.414124897076	37.9339049261849	-0.184386667324912	-46.6140850917452	-0.182221011068855	-46.6322672156583	-34.3326364376004	78.9936696964564	
630000000	-36.3782528976113	28.5030400282777	-0.185346884891088	-51.1000085602593	-0.182758603326181	-51.1194313739477	-34.0716543200447	77.4743844338817	
632500000	-36.2944977008652	19.021889366465	-0.185383135777678	-55.5862862917047	-0.183483180993676	-55.6042514913584	-33.8463898811813	76.1791152454688	
635000000	-36.1451384994358	9.87759386373004	-0.186284726894594	-60.0709295282334	-0.183843543645421	-60.0893709777469	-33.6759403314752	74.5584086913403	
637500000	-36.0298768972174	0.716002608942705	-0.186959786445703	-64.5535968294681	-0.184866672159577	-64.5737630580404	-33.4922584704374	72.5787310148784	
640000000	-35.8192627829539	-8.40087736098729	-0.18772831349391	-69.0372126309362	-0.18589370545741	-69.0594614444938	-33.3613829176398	70.4062007009142	
642500000	-35.6330767473229	-17.2680196102089	-0.188382430828259	-73.5210762841178	-0.186279414391777	-73.5425181765324	-33.2826885186076	68.1442928336095	
645000000	-35.4660221683581	-25.9728236823564	-0.188369530324369	-78.0041309218677	-0.186562438272793	-78.0229289062575	-33.2567748235701	65.9225944906242	
647500000	-35.3054767827621	-34.5129593644971	-0.189113782200069	-82.4854481458707	-0.186876348438802	-82.5063504283272	-33.24465947321	63.6285858629357	
650000000	-35.1181124764345	-42.7811960731955	-0.189582417578851	-86.9645012055972	-0.18778245595894	-86.9859276262115	-33.2513334395074	61.0116974272379	
652500000	-34.9563235008792	-51.0143664815666	-0.190209510641767	-91.445081054341	-0.188595000751434	-91.4642186303216	-33.3184220891297	58.4604525922906	
655000000	-34.7612787084417	-58.8206721512642	-0.19068746490121	-95.9212128488484	-0.18978701758131	-95.9449841565603	-33.4256054478344	55.8481190198973	
657500000	-34.6339948971524	-66.5730283729258	-0.191504292937581	-100.403851205046	-0.189900278443547	-100.42663943948	-33.5764894336357	53.4036249930485	
660000000	-34.5124300247881	-73.9743254577005	-0.192390529675625	-104.883700477048	-0.190621147247458	-104.908912153069	-33.717149905675	50.8111991017595	
662500000	-34.4227233360461	-81.3443893213845	-0.192636282803625	-109.368582045774	-0.191028402193722	-109.388952669295	-33.9450194174512	48.2792730899565	
665000000	-34.3779922762975	-88.5950756025279	-0.193462254413565	-113.850180565084	-0.191502500908084	-113.873264037788	-34.2016237611123	45.8559447410949	
667500000	-34.3249138833667	-95.7578525495595	-0.193818727001173	-118.33305013548	-0.1921930135836	-118.361198834311	-34.5065798607058	43.6113739642042	
670000000	-34.3351064122387	-103.171198405559	-0.194245933785087	-122.819382338037	-0.192337060025737	-122.844222320726	-34.8588980628742	41.6503721498866	
672500000	-34.3567069331171	-110.438559007637	-0.194693750231713	-127.304815463951	-0.19306259994685	-127.330933010836	-35.2561283395242	39.8226908810048	
675000000	-34.4552353551556	-117.79177194036	-0.19529247518752	-131.792385044643	-0.193634539089914	-131.815859954544	-35.6951306992891	38.1440609114114	
677500000	-34.5908720142435	-124.976056273601	-0.195989550858339	-136.279443826773	-0.194062523758673	-136.304119887931	-36.1884292164127	36.9913988781328	
680000000	-34.7691763776701	-132.647236980047	-0.196026351293074	-140.762574467437	-0.19460456658588	-140.78978507125	-36.7108843111753	36.2844200182283	
682500000	-34.9628661125862	-140.530433514249	-0.196621095702678	-145.247250616183	-0.195046928445668	-145.277430046783	-37.3222224475048	36.0049289882498	
685000000	-35.210360158661	-148.34053481067	-0.196878269120377	-149.733609287085	-0.1959492827964	-149.762648388075	-37.8849228651411	36.609830146558	
687500000	-35.4509054481961	-156.830207608656	-0.197604454844554	-154.218931913308	-0.195943752776032	-154.247808978213	-38.478981250112	37.914783839347	
690000000	-35.7485057454551	-165.552219592763	-0.198048453448633	-158.704966188687	-0.196523054565641	-158.734101283756	-39.0050517100856	40.0944205068725	
692500000	-36.0835574255008	-174.438996857219	-0.198880359280962	-163.18980956514	-0.19684075045438	-163.218785093072	-39.4546392754561	43.5041164071286	
695000000	-36.4210155051614	175.87958313956	-0.199315717071888	-167.6735585069	-0.197459424950962	-167.703251706376	-39.7813492991773	47.4730313496422	
697500000	-36.7278441846806	165.892687048072	-0.19960530812616	-172.156068488048	-0.197471607090193	-172.184896352861	-39.9479665148264	52.1143898913103	
700000000	-37.0348574348471	155.32021617755	-0.199645279872154	-176.637956897532	-0.197784004530368	-176.665419772896	-39.8754076430027	57.0163541713881	
702500000	-37.3041843613005	144.252166514096	-0.200528716892995	178.879162163838	-0.198273875016491	178.851037208259	-39.6140973370042	61.6337837435115	
705000000	-37.4856550377242	132.376992426163	-0.201488170957919	174.396207236919	-0.199072839952274	174.37099354743	-39.2303127716139	65.5219036678227	
707500000	-37.5414862081516	120.124355841348	-0.20202677100503	169.911794102823	-0.199741241586196	169.886868164088	-38.652891458369	68.4269314318356	
710000000	-37.5126102961791	107.75899317137	-0.202987412004816	165.425268088264	-0.200306300955486	165.398245787014	-38.0308072189274	70.4857626420725	
712500000	-37.3529854329745	95.2322648911544	-0.203373560957287	160.938525580761	-0.201176469168478	160.912368013431	-37.3999965766632	71.4986238819775	
715000000	-37.0326503298937	83.1486070299651	-0.204160477119344	156.447524029142	-0.201752644693193	156.424289095362	-36.7610596441117	71.5544807661173	
717500000	-36.6458915368418	71.3330976751959	-0.205264216396168	151.963660310054	-0.202148324507197	151.939405028054	-36.1553652853264	70.9805974402297	
720000000	-36.1434914231446	60.2036211475566	-0.205572861175189	147.475646955301	-0.202899171811156	147.451626451868	-35.567589918389	69.5927219443844	
722500000	-35.6090607592597	49.9269299161049	-0.206336099741127	142.987999416654	-0.203876077744043	142.965121757732	-35.0167837443499	67.9159379416008	
725000000	-35.0520742950051	40.275314700602	-0.207593318022859	138.500445671945	-0.204409852480716	138.475089123443	-34.5037020427896	66.0598601065356	
727500000	-34.5314657886549	31.0516027079018	-0.208035503945971	134.011186741539	-0.205308222176147	133.990204855527	-34.0877397310375	63.4315967479961	
730000000	-34.0092112637735	22.394333499399	-0.209086728020466	129.520771049617	-0.205708127504666	129.503865042936	-33.6713199956101	60.5830865680065	
732500000	-33.4954382043496	14.2691172815133	-0.209214691651442	125.037880162421	-0.206509842003474	125.015047282779	-33.3267567847821	57.6273516710016	
735000000	-33.0398037887354	6.67682898961119	-0.210404692558243	120.551202913205	-0.206897030394515	120.531297461408	-33.0298966297421	54.4837354142595	
737500000	-32.5944399179335	-0.645367064123008	-0.210670474264278	116.065505092209	-0.207369699090713	116.047647114267	-32.7738484617307	51.1776591903084	
740000000	-32.2376340974503	-7.72578160327937	-0.211085140583542	111.582740082897	-0.208001781605941	111.564510683401	-32.5614875924654	47.7979773947185	
742500000	-31.8849213802787	-14.6387345770258	-0.211894476389088	107.097377882858	-0.208444640162737	107.081164204538	-32.3734139247082	44.3670648764107	
745000000	-31.5737919470404	-21.1399519046227	-0.212618823618665	102.613841291543	-0.208525192353991	102.599527508061	-32.2320568245601	40.8911682141785	
747500000	-31.2958823814418	-27.4425892741335	-0.212590600397313	98.1347787782014	-0.209066891764918	98.1216849824702	-32.1459201413574	37.1761450297756	
750000000	-31.0685455343645	-33.7152748917838	-0.213079982326942	93.6575236441522	-0.209949750179786	93.6421318604568	-32.0989929853302	33.5218102627574	
752500000	-30.926063605944	-39.8644326272577	-0.213628950387709	89.1760912642647	-0.210080434204169	89.1654474530523	-32.0880071622967	29.7738184293963	
755000000	-30.8032941919943	-45.9211144137445	-0.214087457889519	84.6978004164984	-0.210408535657895	84.6902238289906	-32.1173895236309	26.0379045564372	
757500000	-30.7240928072095	-51.7795852178371	-0.214491240517192	80.2155940708613	-0.210464903298518	80.2096008894706	-32.2182646447927	22.2376867379792	
760000000	-30.7164561664421	-57.5637479223537	-0.214589673867293	75.7331401116171	-0.211314475121189	75.7288619250597	-32.344427582359	18.479076222901	
762500000	-30.7363552325496	-63.353135478633	-0.214707582168193	71.2512251534093	-0.211422384098156	71.2461622220052	-32.5314229923093	14.8333944512608	
765000000	-30.8152559619886	-68.9700932670301	-0.214922219249582	66.7678766118798	-0.211954376236521	66.762033989542	-32.7690199467735	11.2339574565313	
767500000	-30.9491447628947	-74.775177071958	-0.21486511972604	62.2835637566535	-0.212686311142293	62.2826249244277	-33.088656584022	7.74661830039218	
770000000	-31.1581233079063	-80.5446610056584	-0.215424727814355	57.7998553715175	-0.212614264797011	57.799276697412	-33.4205516908631	4.17115067679587	
772500000	-31.4241712217795	-86.2534051020804	-0.215493230976326	53.315037165963	-0.212757973492916	53.3156289716901	-33.8292855625039	0.49002836390711	
775000000	-31.7356352960748	-92.1867064648633	-0.216284999121326	48.8285195786246	-0.213368891432406	48.8311056953276	-34.3217711274109	-2.85353862718006	
777500000	-32.1060418222529	-98.2548119493288	-0.216563826344726	44.3447285139116	-0.213542751943586	44.3461352893889	-34.9066861329406	-6.02862274125605	
780000000	-32.5662138949413	-104.325058197033	-0.216769842449397	39.8590528719246	-0.214189202162892	39.8600009263473	-35.5758547363866	-8.91604557525264	
782500000	-33.1393103021712	-110.416596501349	-0.217376972484026	35.3747214816416	-0.213867827236493	35.3750017541053	-36.3309211856896	-11.3834627345109	
785000000	-33.8040697329667	-116.912671060322	-0.216807923276713	30.886995977598	-0.214025070802775	30.8886505601862	-37.2136853146055	-13.1476307841732	
787500000	-34.5880109163981	-123.726188362244	-0.217276323486729	26.4026014510928	-0.214418590225199	26.4045039001325	-38.2580515469342	-14.9319546431	
790000000	-35.4937829128107	-131.031036476344	-0.217594571843694	21.9190943436307	-0.214983994919961	21.919304292603	-39.4878761629189	-15.4508410894932	
792500000	-36.5606949327105	-139.053240836614	-0.217906313489452	17.433646476144	-0.21490001512019	17.435405716089	-40.9270528166671	-14.1145392955595	
795000000	-37.8782260938693	-148.158341660478	-0.217834468296343	12.951805030966	-0.215038625359592	12.9496837882499	-42.6438249604697	-10.3088430490446	
797500000	-39.3139527185549	-158.873830087089	-0.218718163932528	8.46651514020172	-0.216398035110613	8.46437838692153	-44.4615624455785	-2.22042985511204	
800000000	-40.9508360128515	-172.910589517303	-0.222054977840257	3.98712697807402	-0.218958066456009	3.98354825159082	-46.0310050345961	11.1446669752969	
802500000	-42.9454196494485	167.771841530161	-0.218612913281046	-0.514625451281722	-0.215825545880478	-0.51710601821035	-45.9788549427655	30.554579940694	
805000000	-44.1224201490082	142.015121588092	-0.220220196728697	-4.99724877729199	-0.217068068768392	-4.99963271043959	-45.2306978274743	49.6745967317867	
807500000	-44.1214865910723	111.910499933441	-0.220977451667644	-9.4809028023337	-0.217487982575746	-9.4849535962468	-43.4466109613941	60.1623706322902	
810000000	-42.7805734813143	85.9824945950844	-0.219068984608101	-13.9802623762016	-0.215746505301476	-13.979649690991	-41.6543726750484	66.1069286268585	
812500000	-40.8472567444722	67.2228787417734	-0.221968038631348	-18.4520768811425	-0.219080200551518	-18.4566117809421	-40.0980083633545	69.4538649287591	
815000000	-38.9834491056389	53.0627756929037	-0.223383173483892	-22.9422823131082	-0.218481243850527	-22.9358723634836	-38.643266902418	70.1383120023856	
817500000	-37.3945928904191	41.8229884496397	-0.223001831113338	-27.4244276779437	-0.220360582225957	-27.4315896967174	-37.444519064724	69.5840469865494	
820000000	-35.9554862530584	32.7592295606009	-0.223770855259746	-31.8935070087215	-0.222178075067572	-31.9095985716873	-36.3666016854515	68.139238830506	
822500000	-34.7941619911061	24.557376728165	-0.22462475424577	-36.3948282232553	-0.221347105562168	-36.4045856445514	-35.4393761219678	65.9459705933727	
825000000	-33.7555462707747	17.3128730715269	-0.227872893854152	-40.8818484691652	-0.219848220287588	-40.8824470895634	-34.6443045561215	63.6153887238239	
827500000	-32.8557704030265	10.5377045853322	-0.226538481008393	-45.3654805959392	-0.223784097131074	-45.3774252490525	-33.929936673306	60.8194093954877	
830000000	-32.0959212686615	4.18717000135396	-0.229047136325782	-49.8580218266015	-0.224429568120429	-49.8671927461471	-33.3630654311614	57.9850109011495	
832500000	-31.4172699012254	-2.00400597169265	-0.227858087575351	-54.3363242403961	-0.224863420572852	-54.3522674833723	-32.8265808774361	54.9774746900172	
835000000	-30.8268276114414	-7.77072039637629	-0.22860967983547	-58.8246878331613	-0.227141246050198	-58.839039278645	-32.391980823064	51.6566269962118	
837500000	-30.3462394506577	-13.6464769380665	-0.229315422013313	-63.3072927112889	-0.226264207085348	-63.3208314720285	-32.014472062128	48.5434024592839	
840000000	-29.9210205162623	-19.3848681077714	-0.228785535914843	-67.7843566248495	-0.227204678282359	-67.8080958582513	-31.6905989250325	45.3093357043505	
842500000	-29.5728886351506	-25.0473261188174	-0.230641661736503	-72.266408261097	-0.226911275171901	-72.2870155086023	-31.4755664433349	42.1214302033604	
845000000	-29.2821800061984	-30.5400195037818	-0.228371957860334	-76.7568949562498	-0.232065842904194	-76.7633696844327	-31.2922297718673	38.3723965336038	
847500000	-29.0630619356097	-36.1976161023785	-0.230340737396716	-81.2299908364967	-0.228351574834395	-81.2452230448708	-31.1410220123347	35.610463200204	
850000000	-28.9073971130848	-41.7189202457546	-0.23080811190345	-85.7037445615512	-0.227265636340513	-85.7224741756506	-31.0738499826176	32.3585994276977	
852500000	-28.7969784446578	-47.4663805037344	-0.231527090417257	-90.186482481771	-0.229294608251551	-90.2060436050927	-31.0452427023642	29.1844229587881	
855000000	-28.7572281625987	-52.9571640766181	-0.231961754803714	-94.6626060608826	-0.229365111014909	-94.6851982909479	-31.0497235228944	26.2266968235449	
857500000	-28.7658537339362	-58.7542159099865	-0.23267742651948	-99.1462837746413	-0.22976561646712	-99.1653342531119	-31.1652093625766	23.4066618700227	
860000000	-28.8387457002784	-64.5525091432044	-0.234678497035226	-103.627825062299	-0.232868099851399	-103.646647960542	-31.2931966007217	20.4231253073559	
862500000	-28.9734079081232	-70.3119641283661	-0.233472365547639	-108.111334743103	-0.230480316024811	-108.128172973366	-31.516374725332	18.0491090690082	
865000000	-29.1624873829425	-76.241768401927	-0.232943311991544	-112.590876367756	-0.230992243651996	-112.602229331407	-31.7622493701654	15.9031432927446	
867500000	-29.4131099809617	-82.3093542253899	-0.234478304853772	-117.083016243809	-0.2315542553512	-117.098241617886	-32.0612888201633	13.6210215349893	
870000000	-29.7397678890447	-88.578125414959	-0.232881766731623	-121.576747234477	-0.230157838951607	-121.5891747278	-32.4284440458481	12.0437767083457	
872500000	-30.1229489126899	-95.1993908937832	-0.235194863532482	-126.054282518412	-0.232375145765779	-126.068387264754	-32.8812650879283	10.6712168340471	
875000000	-30.5688124048724	-102.064947932521	-0.236536239790403	-130.558707454738	-0.232912595106313	-130.552783265632	-33.3334896727236	10.0154485133679	
877500000	-31.105138393063	-109.226975446138	-0.235763747161898	-135.032385465063	-0.233380754118693	-135.045915048718	-33.9038420170024	9.91077993105485	
880000000	-31.7210252497949	-117.02077660515	-0.236557716561745	-139.51013538635	-0.234775214300602	-139.522756131565	-34.5070395891056	10.5550934864567	
882500000	-32.4293143189929	-125.344816686186	-0.236517571732122	-144.009726930543	-0.234440449964164	-144.02111416709	-35.0439269738495	12.5057267541544	
885000000	-33.2165762209747	-134.848070633574	-0.236307943087832	-148.479641346321	-0.235652825038148	-148.501379544243	-35.5944773761617	15.4447306252701	
887500000	-34.0638303308435	-145.159925558058	-0.237504635982254	-152.979367451592	-0.234579595880656	-152.991309551609	-36.0408499630265	19.5826082596487	
890000000	-34.9035042209479	-156.932805148572	-0.238569688250255	-157.473678156409	-0.236400701593361	-157.483768499835	-36.3123830027567	24.8558228458866	
892500000	-35.6933141348509	-170.993196664406	-0.23845654138018	-161.953864953337	-0.235910857526117	-161.960730588727	-36.3902439928989	31.0463267439037	
895000000	-36.378623542117	173.35437082735	-0.237259193862401	-166.435789235288	-0.236796213686968	-166.450488132463	-36.1765033047926	36.8904441279694	
897500000	-36.6707738446752	155.947224127324	-0.240983230506086	-170.921091494746	-0.238254023223061	-170.933259705095	-35.7246967755767	42.5267760565329	
900000000	-36.5862677044304	137.725587582203	-0.240276563308882	-175.406528273529	-0.238176982113009	-175.41237710459	-35.0981627592301	46.9536538764779	
902500000	-36.0543289756359	120.72868756297	-0.242764563992203	-179.889700969654	-0.239989848716747	-179.897928330292	-34.3701248617811	50.0098264060278	
905000000	-35.1780351684901	105.369201391737	-0.241416227797282	175.601534347422	-0.24120365978777	175.630090212605	-33.6464096952258	52.1508985212454	
907500000	-34.2886970710022	92.06840926435	-0.244282332987591	171.138628235833	-0.242001344596021	171.138868314675	-32.8633440169383	52.9437491901157	
910000000	-33.3337150677936	80.565599316141	-0.246105992695933	166.6588165803	-0.243522170627473	166.656298983295	-32.164465924998	53.1924330501244	
912500000	-32.4139868575676	70.3179775081942	-0.247183183573217	162.173753398726	-0.244623597644184	162.171033061326	-31.4868351244729	52.8094053558172	
915000000	-31.5406611022709	61.2009585651741	-0.248578150846479	157.681782006257	-0.244095057035275	157.699809751098	-30.9051066503427	51.6985942221157	
917500000	-30.7367344878722	53.0588444828995	-0.24934665882104	153.202674194639	-0.247162319058684	153.199026344012	-30.2990770475086	50.3096203096454	
920000000	-30.0111906082681	45.3644827370443	-0.25112602241651	148.714984966309	-0.24877164101397	148.715550462985	-29.7939033745316	48.4440897339555	
922500000	-29.3551587625199	38.3312544133401	-0.250986584669475	144.233327291399	-0.249667962933384	144.233313055568	-29.3508870979273	46.42455662254	
925000000	-28.8184303305295	31.653184437461	-0.252965306655734	139.746416894493	-0.249110272432846	139.750528258955	-28.9441573680447	44.0255588897098	
927500000	-28.3358148047879	25.1430051640332	-0.254160524007979	135.263935284601	-0.251186583697298	135.262255681085	-28.5893310659196	41.6851710646039	
930000000	-27.9151117576239	18.9717946748045	-0.253758092434442	130.774327909602	-0.251250616879185	130.776236723829	-28.2947483728051	39.1614921551218	
932500000	-27.5680847261536	12.9744554645576	-0.255612932573826	126.296712111752	-0.25211948273947	126.299110726447	-28.0529366853556	36.4965139826745	
935000000	-27.2610700140784	7.12045792275148	-0.25368665285702	121.799752009308	-0.255017415485085	121.819524153258	-27.8727717399939	33.7150049869968	
937500000	-27.0468160131051	1.37536322210105	-0.256900073702736	117.329905118008	-0.254110222328669	117.335426960074	-27.7303678487324	30.8935081428202	
940000000	-26.8823642521681	-4.2224488054493	-0.257612750277045	112.854605641264	-0.254230679541725	112.859594936759	-27.6495575209322	28.0711307145383	
942500000	-26.7620086731026	-9.8612982996613	-0.25827299016381	108.369326554152	-0.255105243885982	108.372156338384	-27.6011621052955	25.2838300648349	
945000000	-26.7226289906018	-15.2618667469135	-0.257382340221731	103.885350843315	-0.255297524998022	103.892919910482	-27.6054265438878	22.4669373844202	
947500000	-26.716880019196	-20.8284619847715	-0.257908233452919	99.4080398291884	-0.255392290036954	99.4148878259434	-27.67351731253	19.7164488096351	
950000000	-26.7921986490847	-26.2444940494943	-0.259123104990515	94.9274113600227	-0.256430467045636	94.9347044576866	-27.7763863013273	17.0165837969236	
952500000	-26.92460468168	-31.6713961861837	-0.258697549045797	90.4489961008685	-0.255889886101366	90.4559860246103	-27.9508744658322	14.4524802218326	
955000000	-27.109921431844	-37.0756765454189	-0.258976385749145	85.9696651728796	-0.256072461629209	85.9780183466433	-28.1742064285095	11.9184360740957	
957500000	-27.3757593755171	-42.7111860518267	-0.258600360889278	81.4915615645017	-0.255545952675339	81.4995320737573	-28.4635111005033	9.53997104260667	
960000000	-27.7111663802244	-48.277470490048	-0.257768712120951	77.0125582810879	-0.25498310147099	77.0176449190759	-28.8113053340668	7.36407698279884	
962500000	-28.1130612589278	-53.8268326747284	-0.258524562194394	72.5249393901966	-0.255470559033101	72.5306188617047	-29.2004954829568	5.37639064980745	
965000000	-28.6087012389579	-59.6055424544791	-0.258711550500983	68.048450434071	-0.255747855581916	68.0611217148128	-29.6718056374942	3.71010777307952	
967500000	-29.2008045221484	-65.4052572400241	-0.259309309525686	63.5500048234742	-0.256511627935791	63.5550392407517	-30.2058482847009	2.52565512707481	
970000000	-29.9119473943694	-71.5756201576257	-0.259762365033828	59.0657021747878	-0.256112099781641	59.0726694962338	-30.8083885020312	1.71407787042677	
972500000	-30.7488080502097	-77.9361786041801	-0.25967798024033	54.5720199493923	-0.256398283424238	54.5784630006961	-31.4673991829672	1.56571257818133	
975000000	-31.7474869183991	-84.849808577576	-0.258566421818928	50.0845988928376	-0.25649939819283	50.0933578417407	-32.1902061279145	2.32400102582587	
977500000	-32.9264712921742	-92.4263471054244	-0.258974980739307	45.5927017593177	-0.25588017546845	45.5989231218285	-32.9985649279582	3.88878091051539	
980000000	-34.347618028503	-100.94067682462	-0.260146321210462	41.0974481667719	-0.257314275117813	41.1083522446922	-33.8018951661781	7.07515447280674	
982500000	-36.0411711559749	-111.561012458091	-0.259817732824343	36.613941310501	-0.256680516532965	36.6208114289658	-34.5818691298311	11.7403747537335	
985000000	-38.0701126311147	-125.573701807842	-0.26050290458006	32.1328701349452	-0.259743298946927	32.1459539583125	-35.0812728017164	18.2347193749242	
987500000	-40.2723756840475	-145.629164082213	-0.260177462813534	27.6377337330315	-0.257437766213121	27.6417188017598	-35.5869437633712	25.8996723693147	
990000000	-41.9439007629527	-175.085890043671	-0.259336042812505	23.1453442681526	-0.257415640903653	23.1535641192661	-35.6247498544567	34.5920858314913	
992500000	-41.6507658215125	150.471427469581	-0.261122239487003	18.6563618529126	-0.258244803910704	18.6656937186073	-35.2751396241192	42.8281271474673	
995000000	-39.6415127781899	123.804763121865	-0.260171954147217	14.1935588611004	-0.257089981574233	14.1864763183872	-34.6558318472398	49.3725325513233	
997500000	-37.4044515861377	105.156495424973	-0.263028017532735	9.68320781627175	-0.260370531839713	9.69474602651826	-33.8064201194394	55.1565894617921	
1000000000	-35.3629204377437	92.3082775343111	-0.264317880258597	5.20483901022808	-0.260778075970358	5.21220771579263	-32.921926591328	58.8086443967372	
1002500000	-33.6596056693355	82.1891876786591	-0.265233699360128	0.715212092108611	-0.26164773036604	0.727724082293281	-32.0257408154069	61.1302480625719	
1005000000	-32.2490022664203	74.1169426934955	-0.264811230290137	-3.7752067700384	-0.266419401438647	-3.76516147808551	-31.1759164318483	62.3111012268681	
1007500000	-31.0269333514634	66.5143620054008	-0.266557195528086	-8.25483618813183	-0.264597046086813	-8.24116410494683	-30.3871871745523	62.5852030471606	
1010000000	-30.0103162077676	59.9002918824463	-0.267751160790807	-12.7398799016998	-0.265761663587782	-12.7199183721215	-29.6692961124594	62.0900760499648	
1012500000	-29.125524483424	53.660109116423	-0.269407464536405	-17.2210619695869	-0.266554789155648	-17.20501987613	-29.0265341506931	61.1989541977381	
1015000000	-28.3627323170796	47.5328449950023	-0.268412481626122	-21.7240027174977	-0.269551758293989	-21.6764925416343	-28.4462288884758	59.8460829166656	
1017500000	-27.7032363606772	41.8931484367747	-0.271143628486555	-26.1884501911188	-0.268469590104039	-26.1704215498728	-27.9477078341357	58.2641092917089	
1020000000	-27.1431327265045	36.3085061529543	-0.273953013076606	-30.6705408896894	-0.270544415294023	-30.6579800494425	-27.496127862413	56.4206941950234	
1022500000	-26.6722798396039	30.8645938753084	-0.274056797175324	-35.1570847303554	-0.270647693660492	-35.1356361749164	-27.1148671932348	54.4616389977765	
1025000000	-26.2793491404059	25.5050775466729	-0.275768371513232	-39.638135382027	-0.272715321955762	-39.6246681121474	-26.7847928922042	52.1402728462446	
1027500000	-25.9485245005656	20.249126327689	-0.276217729628496	-44.1166654375866	-0.27338929097163	-44.0973404732346	-26.4995604196472	50.0115464001223	
1030000000	-25.6806303288076	15.0931539105753	-0.275773519718628	-48.6053416608953	-0.272589445152522	-48.5769524043419	-26.2758175068479	47.7063273046038	
1032500000	-25.4756340930132	9.93357440069904	-0.277733482536412	-53.0796061271469	-0.274645787993481	-53.0598669121177	-26.0892382706067	45.2791998930911	
1035000000	-25.3400208667142	4.66114085259073	-0.278287883003017	-57.5611821162019	-0.277485370961642	-57.5418356931879	-25.9701900406869	42.8164266674877	
1037500000	-25.2539955328806	-0.351464874073765	-0.278263953782899	-62.0452801356166	-0.275510301771894	-62.0254360450963	-25.8728504488997	40.4856643255197	
1040000000	-25.2408567317256	-5.5483861796566	-0.279428297370776	-66.5140039018423	-0.27749023100374	-66.4968934106662	-25.8342020030868	38.0766924802782	
1042500000	-25.2670698822327	-10.6501778072106	-0.279000353631946	-71.0047900102068	-0.275672874755976	-70.9797373682479	-25.8375027863402	35.7692694859952	
1045000000	-25.3773723454546	-15.7267966203456	-0.279080432630407	-75.4811578995464	-0.277050318600382	-75.4549188578872	-25.8836564012595	33.4704382124311	
1047500000	-25.5145349472881	-20.9208597756821	-0.278994432283152	-79.9588758511336	-0.276114921024431	-79.9346894662198	-25.9820861591933	31.2392184106128	
1050000000	-25.7128709780061	-26.0957563617282	-0.279334450392427	-84.4508530512666	-0.275417303297185	-84.4210072035445	-26.1012154958498	29.1066647110009	
1052500000	-26.0023931476516	-31.3821546830745	-0.278151399539158	-88.9126380160972	-0.275660150208073	-88.8900041198451	-26.2901349957189	27.0588146024481	
1055000000	-26.3626441763353	-36.7847315503774	-0.277075569391486	-93.3932207469988	-0.272718457467549	-93.3702945118909	-26.5217089481967	25.1171925936259	
1057500000	-26.7713208724885	-42.0777133758076	-0.278428289467568	-97.8711995286991	-0.275713043976126	-97.8515975729125	-26.8082601636292	23.5116048680459	
1060000000	-27.2858384176053	-47.5132644218591	-0.27668315725558	-102.349461368543	-0.275489949877101	-102.325846701954	-27.147619753893	22.0405344882286	
1062500000	-27.8643718375183	-53.2366899669175	-0.278054458422264	-106.838489809166	-0.274981657455089	-106.817023646482	-27.499882320678	20.8005807594539	
1065000000	-28.547111350022	-59.0088568409466	-0.278147350126298	-111.322445609014	-0.275356835030843	-111.307887703515	-27.9248604770718	19.8876138479803	
1067500000	-29.3440678492188	-65.1408868388119	-0.277625274982236	-115.812954693072	-0.274219382584134	-115.789472461158	-28.3872164286875	19.356642568738	
1070000000	-30.2910540169727	-71.7364798927484	-0.278611288111965	-120.305741847252	-0.273698245008216	-120.285371447832	-28.8944916265139	19.0551700889647	
1072500000	-31.3937896808828	-78.5952861093256	-0.277666548347465	-124.78926826867	-0.274863867156134	-124.761438624554	-29.4397358136225	19.6725906534039	
1075000000	-32.6962524500561	-86.4037287800054	-0.276951242671171	-129.271233910392	-0.274599078870499	-129.251285237794	-29.992126878541	20.6117498331976	
1077500000	-34.291331816251	-95.1573967936827	-0.277566616677312	-133.769911279673	-0.275456262191146	-133.744711651642	-30.592954673223	22.5419147128016	
1080000000	-36.1541632111439	-105.839483974135	-0.276059004719588	-138.25959555623	-0.275411481639337	-138.223460398842	-31.1354283705808	25.3171689508211	
1082500000	-38.4702195035454	-121.144993974091	-0.277205730848883	-142.751081786151	-0.274627121192831	-142.725533858099	-31.6904098250594	28.8842370475429	
1085000000	-40.9327241276294	-143.600611553475	-0.278459506153194	-147.239839816367	-0.27538415529307	-147.21513238859	-32.0940040476081	33.2980217260155	
1087500000	-42.4634014975125	-177.379957901995	-0.278153535246587	-151.728385423275	-0.275216133238671	-151.703691438643	-32.3938631242113	38.4580711579906	
1090000000	-41.5603923811914	145.858530931018	-0.279684128653682	-156.222015031572	-0.276377344118211	-156.212333244443	-32.5427090624843	44.2867568509556	
1092500000	-39.2309235838268	121.034635290586	-0.278922833388819	-160.704775167404	-0.275905020040888	-160.680478061568	-32.4253799867978	49.7233375335877	
1095000000	-36.8343023785163	104.534338687404	-0.280143619378087	-165.189966710813	-0.277973230548006	-165.169446314178	-32.1879086124404	54.8052693725175	
1097500000	-34.9198692042509	92.3625343880963	-0.280685801006278	-169.674425425546	-0.278368126243194	-169.654761669565	-31.7499983124594	59.6557003575463	
1100000000	-33.3182013363128	83.2529942450454	-0.279443017959748	-174.15190229782	-0.276268758570323	-174.122873512091	-31.2875047926658	63.497037101108	
1102500000	-31.9351400998668	74.8780035487604	-0.282669129712763	-178.640618913951	-0.279984969678144	-178.62200661078	-30.6995523285789	66.6899113803105	
1105000000	-30.7907750491503	67.5407889752085	-0.284297080780969	176.871754829097	-0.281358656626352	176.885934135943	-30.1409872323486	68.9238494041582	
1107500000	-29.859741506287	60.7748578856974	-0.284108353348935	172.388240111986	-0.281783589998778	172.403811697413	-29.5893918642099	70.5172509335814	
1110000000	-29.0503357920948	54.0431809637588	-0.287642777158578	167.905743816528	-0.286955752974968	167.913985270753	-29.028674692199	71.3349925482052	
1112500000	-28.369784735872	47.7857391451701	-0.286957801984892	163.417701546451	-0.284188003934856	163.430027459548	-28.5776232489874	71.8810789288559	
1115000000	-27.7921266677503	41.6102170905524	-0.287974767945626	158.931082388195	-0.285726556676175	158.950094661691	-28.1285626725016	71.9715255572755	
1117500000	-27.3009197296987	35.490786729734	-0.288986848016653	154.448949910003	-0.286659142002106	154.463831955335	-27.7051405028817	71.9200100134889	
1120000000	-26.8818674243989	29.3938212263951	-0.288569092705463	149.957402136448	-0.285257712518879	149.971924548146	-27.3245221871505	71.686483889092	
1122500000	-26.5532149452402	23.2692674002133	-0.291025585415033	145.480601716212	-0.289101969215679	145.496099721085	-26.991670224233	71.0793010410035	
1125000000	-26.2618471155861	17.1534441321039	-0.291526165064402	140.99699770182	-0.291405435728209	141.005821192118	-26.6825942513302	70.5357953998156	
1127500000	-26.0517645889165	11.0320333910219	-0.293844009939893	136.508946601374	-0.291671132383033	136.521599472464	-26.4223544123662	69.7221286623962	
1130000000	-25.8940844064807	4.76483362279887	-0.294979950481663	132.035412995943	-0.293634569869575	132.046298050393	-26.1988566239064	68.9161297016052	
1132500000	-25.7777435966115	-1.56706954060943	-0.295995676948434	127.542489487183	-0.293126099246027	127.552702423708	-25.983956789871	68.2190941027808	
1135000000	-25.7163177990729	-8.10810433583042	-0.296895002604583	123.056653049295	-0.295007567692941	123.068427235163	-25.8086789331833	67.4967709112188	
1137500000	-25.6940262075875	-14.6774542212451	-0.296697357192043	118.573725755109	-0.295297543941643	118.58612374245	-25.6517277042924	66.8796974614371	
1140000000	-25.7065369784269	-21.4949856398825	-0.297806930271485	114.080026190547	-0.295342370798215	114.09398415892	-25.5047101594943	66.0251445825564	
1142500000	-25.7685798991703	-28.4879660560492	-0.298147903282633	109.60753337523	-0.296367754747743	109.623631689055	-25.407514401723	65.4114135486675	
1145000000	-25.849783328735	-35.7535517467834	-0.2990832862804	105.130177062616	-0.297316089810821	105.143462789859	-25.3135270565679	64.8987422472651	
1147500000	-25.9698752740842	-43.1929649161467	-0.299653958140747	100.64698204002	-0.297779210445716	100.658277772749	-25.230751496646	64.4440626724296	
1150000000	-26.1096848368241	-50.8196843630271	-0.300150944818006	96.1715763468106	-0.298490144049642	96.1829651473313	-25.1401294176411	64.1775617068722	
1152500000	-26.2516926513519	-59.0544386488033	-0.30068177820715	91.6828607873046	-0.298855834106397	91.6949288008849	-25.0681163722222	63.7175477913656	
1155000000	-26.402450555792	-67.5493372025222	-0.301822377869491	87.1974012712236	-0.298713296514592	87.2195370389152	-24.9894839333587	63.4996053773512	
1157500000	-26.5486133953805	-76.3435550424765	-0.301618446058772	82.7171208350414	-0.300047988402255	82.7311231141609	-24.9157123318083	63.3535981708605	
1160000000	-26.6854399675245	-85.5622060568734	-0.303215577545012	78.2252167729211	-0.300402488919539	78.2412820415868	-24.8431846709053	63.2415642952654	
1162500000	-26.7893970535013	-94.9373486816224	-0.303652469845552	73.7478620467253	-0.301618606224835	73.7642346121784	-24.7331572642717	63.2372554678745	
1165000000	-26.8503530539704	-104.705486797198	-0.305342027408513	69.2585933197213	-0.30211155624062	69.2765869642602	-24.6430834659739	63.3000002116424	
1167500000	-26.8676192242509	-114.680894052529	-0.305645419179669	64.7718330790995	-0.303295716790387	64.7914419439761	-24.5277130628671	63.3593641855159	
1170000000	-26.8167294480188	-124.710218917735	-0.305911421070779	60.2951289107176	-0.303570753321995	60.3156682348008	-24.3904081573525	63.3403571720475	
1172500000	-26.7229934692966	-134.981215033242	-0.30798402001771	55.7969817432796	-0.30493970719989	55.8167899605289	-24.256891775874	63.3186923882297	
1175000000	-26.5544354725187	-145.034655536199	-0.308729557737841	51.3088120267011	-0.305093949039289	51.3315853376269	-24.1003278316583	63.2956851242442	
1177500000	-26.323937576342	-154.906816598429	-0.30973261559105	46.8226175141505	-0.306750911704873	46.8446500925418	-23.9328456317846	63.1444975633932	
1180000000	-26.0656304807391	-164.633123080174	-0.312879465956586	42.3235524060294	-0.309353614023941	42.3461600247023	-23.7491970099646	62.926124004278	
1182500000	-25.7372578529285	-173.875887615826	-0.311817510963815	37.846647848179	-0.308848557282674	37.8705436528448	-23.5597853775597	62.4956509795356	
1185000000	-25.3983895526559	177.152287982562	-0.313375051300402	33.3605517673914	-0.310196360041278	33.388009612231	-23.3627363305455	61.9594350224239	
1187500000	-25.0384389948905	168.454593441309	-0.31419774058336	28.8768523773039	-0.311477147634664	28.9021476684355	-23.1632412237019	61.3512394702686	
1190000000	-24.6603229509673	160.179295428323	-0.312520989440656	24.3927832207313	-0.310235949797704	24.4220200439221	-22.9710925191314	60.5553994957396	
1192500000	-24.3136936788435	152.127076085307	-0.317025319553254	19.9072882001244	-0.313855018763264	19.9340266515125	-22.76642327715	59.7022873102425	
1195000000	-23.9683359477526	144.465976395316	-0.318028263349609	15.4267059151366	-0.314764144756784	15.4555929249688	-22.5762600429769	58.6711728872292	
1197500000	-23.6477994151977	137.072401258634	-0.319604754816912	10.9479685199842	-0.316387421148697	10.9751975016383	-22.3941516202799	57.4615291838254	
1200000000	-23.3427872596815	129.919837455326	-0.32297640733909	6.47814492529041	-0.318783440931472	6.50571223774123	-22.2142198958372	56.1097325661355	
1202500000	-23.0576503999912	123.020063992365	-0.321652393950336	1.99447589466508	-0.31891794404649	2.02472786504415	-22.0576850779531	54.6564428901951	
1205000000	-22.8002370914954	116.311134871337	-0.323219393506255	-2.48168131880847	-0.319943615022379	-2.44779557568067	-21.9124352892903	53.050119805509	
1207500000	-22.564499210336	109.758307675446	-0.32431452768216	-6.95757958179472	-0.321114355810105	-6.92758227803882	-21.7843488914227	51.3233005492774	
1210000000	-22.3573672130074	103.37248784231	-0.324261493192008	-11.4466393117085	-0.321957109553473	-11.4036282208523	-21.6705119604931	49.5510378960745	
1212500000	-22.1919308517282	97.1093805702328	-0.326820907223623	-15.9135857274383	-0.323885208245509	-15.8763319430483	-21.5828397444462	47.5963693716815	
1215000000	-22.0504209307361	90.9333677226015	-0.326922557895767	-20.3954004672955	-0.324926103880105	-20.3539095756496	-21.5143924878928	45.6042406546253	
1217500000	-21.9420402801188	84.8809367686184	-0.328727360827476	-24.867846846626	-0.325712268053906	-24.8336911433578	-21.4560994391291	43.4712703400257	
1220000000	-21.8685704026958	78.8944807147129	-0.331069700687603	-29.3335973766275	-0.326737357516318	-29.30839836503	-21.4283459116036	41.2579574486304	
1222500000	-21.8157197835189	73.0053049709551	-0.32997930065437	-33.8183619083613	-0.326808249314531	-33.7872581849172	-21.4210327093568	39.0730697714733	
1225000000	-21.8014864575782	67.2024304281131	-0.330333423969354	-38.2993534077158	-0.327525463756409	-38.2607258114408	-21.43782783315	36.7708780546745	
1227500000	-21.8097731906289	61.3850787414144	-0.329882166830578	-42.7770402010721	-0.327560135159318	-42.7425861164973	-21.4844524536036	34.4264445804155	
1230000000	-21.8588470628069	55.5892799104736	-0.330120817720259	-47.2677250598303	-0.326388066818703	-47.2162931256627	-21.5364001140745	32.0493265891382	
1232500000	-21.9405110665668	49.8866099378261	-0.330861120501173	-51.7301114832765	-0.327781194035141	-51.691312366164	-21.6367420813448	29.663040459028	
1235000000	-22.0529681274443	44.1479265803183	-0.329669632494991	-56.2028597098403	-0.327081666086553	-56.1678168305232	-21.7523615610138	27.2511128575734	
1237500000	-22.2009842855674	38.4692537185493	-0.329157115594489	-60.6836649986396	-0.327007539322169	-60.6459865724526	-21.9076680150032	24.8159923118766	
1240000000	-22.3815586737587	32.7908826921507	-0.328912968792272	-65.1491048867095	-0.328109735196127	-65.1225225413571	-22.0917505962211	22.4122174269756	
1242500000	-22.6152508689999	26.9729070648698	-0.327889535716282	-69.6365556372772	-0.324767845478876	-69.599484842793	-22.288389911821	19.9319690028186	
1245000000	-22.871331771248	21.1992899993699	-0.325757722973766	-74.1133224047572	-0.324341197232447	-74.0722728197371	-22.5167096610928	17.485686150608	
1247500000	-23.1620906775775	15.4099578605139	-0.325173238773132	-78.5848450450373	-0.323253417184045	-78.546117240686	-22.7935575605283	15.0875862803913	
1250000000	-23.5075829167651	9.61052205373263	-0.325662101132226	-83.0721569653675	-0.320297627741771	-83.0315243882297	-23.1012132839855	12.6026093194223	
1252500000	-23.8755744344473	3.72340694216077	-0.323484533926422	-87.5342465955209	-0.321077916143806	-87.4968907883205	-23.4444497794231	10.3917870724557	
1255000000	-24.311125017311	-2.24651270727724	-0.322440637852277	-92.0155923861507	-0.320240888315466	-91.9746892015865	-23.8229111318218	8.14550948860919	
1257500000	-24.7842364400826	-8.38797252466322	-0.32138210715946	-96.4932531994746	-0.319354429579367	-96.4539486718399	-24.2436686862201	5.96102328028002	
1260000000	-25.3173889651252	-14.6534820043725	-0.318759305245641	-100.964593866529	-0.31868408280139	-100.922830815937	-24.7086063747954	4.07330856222485	
1262500000	-25.9191947487813	-21.0383921269152	-0.319019478707586	-105.458943328665	-0.317226690545695	-105.421924147515	-25.2277606256588	2.05357947599544	
1265000000	-26.5773849038528	-27.6545113693484	-0.31792454333115	-109.945262318943	-0.31641047227464	-109.90778123887	-25.798509311967	0.359841702169348	
1267500000	-27.3090309335303	-34.5984893046962	-0.316654973327545	-114.432911178221	-0.314655290312233	-114.396587057373	-26.4194884975036	-1.12463469041275	
1270000000	-28.1269319279006	-41.7578004140661	-0.318450731000127	-118.927173062697	-0.314461991195056	-118.895592016238	-27.1121563413198	-2.26352388494134	
1272500000	-28.9965746259527	-49.6331321106805	-0.314997602163042	-123.408213134236	-0.312197039315299	-123.36894951572	-27.8291308912983	-3.0840271937767	
1275000000	-29.9790864529113	-58.0968309857976	-0.314329685012558	-127.897428829314	-0.31167491151463	-127.857371697469	-28.6260098592563	-3.37239760300627	
1277500000	-31.0690408278795	-67.3910769525922	-0.312722905701274	-132.38554499461	-0.311090699510893	-132.349331140431	-29.4934645722773	-2.98736649642862	
1280000000	-32.2408772785828	-77.9117353760096	-0.309774446606514	-136.880253608915	-0.308654649555541	-136.83177219648	-30.4090136057476	-1.85499645500054	
1282500000	-33.4981388381302	-89.9293164263502	-0.311617174020675	-141.371117996195	-0.310021771271267	-141.336232062152	-31.3857522736888	0.616641860758447	
1285000000	-34.7724424856026	-104.218261574072	-0.310922820452045	-145.862889270034	-0.309550411490203	-145.826187368491	-32.3356406113772	4.20782671436787	
1287500000	-35.9022376685632	-121.233679166244	-0.31145767624185	-150.352763900183	-0.309256222688063	-150.317704254625	-33.2456467582949	9.41700783386059	
1290000000	-36.6464158609057	-140.746311613285	-0.312942257438623	-154.835166656838	-0.310983840292821	-154.810516805848	-33.950190097034	16.5891045067162	
1292500000	-36.7949045621719	-161.849301136172	-0.311178943605076	-159.335682129683	-0.309655695243739	-159.29740841588	-34.4512871802102	24.8334869508371	
1295000000	-36.4019748726932	178.092773939843	-0.310695549073978	-163.827462865197	-0.309946253057772	-163.784489019318	-34.5343170972389	33.7587786805961	
1297500000	-35.5470995273991	160.349354924133	-0.310982983198618	-168.311263113086	-0.310155846409508	-168.272561578922	-34.2764453021489	42.0003024217144	
1300000000	-34.5596281339302	145.158523429362	-0.311082477167339	-172.807391030426	-0.310111444319337	-172.760486162854	-33.6929216930667	49.2524347989377	
1302500000	-33.5242659081183	132.697185898333	-0.312430335805681	-177.287413281257	-0.311172891998544	-177.247137507935	-32.9543923009086	54.149509528942	
1305000000	-32.5548140074707	121.624306190591	-0.313082575144311	178.227502540849	-0.312494193997492	178.26432110573	-32.1860435490018	57.8060332987391	
1307500000	-31.6693866740427	111.934835749101	-0.313942466316196	173.740807072838	-0.313118768427621	173.776249960781	-31.4071201843325	60.0001204494615	
1310000000	-30.8729324009348	103.248917016594	-0.31433655283975	169.25725659694	-0.316049885620003	169.289078570131	-30.6888995471661	61.2023780711922	
1312500000	-30.1966124325731	94.8916039924871	-0.315448987958163	164.762724064848	-0.315709203576219	164.801794293472	-29.98402453907	61.6112681052847	
1315000000	-29.6066767547693	87.1538381159721	-0.316915312436235	160.273368538423	-0.316681182790038	160.312586856118	-29.3689059809159	61.1692351275117	
1317500000	-29.0869139451291	79.7530786151549	-0.317888383868971	155.78530146807	-0.317304406146112	155.830800390545	-28.8002999694363	60.383017467766	
1320000000	-28.6286343610468	72.5915619861752	-0.319049659583782	151.291402658614	-0.316396891588074	151.338600243233	-28.2958088111148	59.0181982236064	
1322500000	-28.2353358826152	65.7364582260972	-0.320137767834681	146.810746121628	-0.319503909121556	146.860041430893	-27.8670577141084	57.5142590430797	
1325000000	-27.8942477924447	58.9322863224092	-0.321452984614484	142.32631135657	-0.320896578758478	142.371676307765	-27.4783241185166	55.6839658576562	
1327500000	-27.6104671721349	52.2419310402312	-0.322755707048661	137.833015630401	-0.321925909906078	137.883834878341	-27.1488002607139	53.6214891658109	
1330000000	-27.3611700089372	45.6466011594687	-0.32363156253454	133.355739914132	-0.324824942797611	133.410193328142	-26.8648243066021	51.5399483487595	
1332500000	-27.1802751555918	39.1523037290185	-0.324704065449153	128.865115342663	-0.324075903620333	128.915982169059	-26.6271751228201	49.0261765419762	
1335000000	-27.0262008076391	32.6776871864291	-0.325765513737263	124.383353137199	-0.324771785565064	124.434438933875	-26.4232672950062	46.5853653689423	
1337500000	-26.9172144973062	26.1134411826397	-0.325842827167053	119.896722330709	-0.324816193842035	119.955110202075	-26.2676301367017	43.9227753085908	
1340000000	-26.8395200108698	19.6462659100532	-0.327137732069841	115.410770521289	-0.325882994773567	115.458961828682	-26.1551342154752	41.2371030603875	
1342500000	-26.7770029405029	13.135749537497	-0.327718448508552	110.940538530818	-0.32678830140439	110.994262895512	-26.0634179234728	38.5818464657962	
1345000000	-26.7415870738315	6.57574862211067	-0.328844978783307	106.459571481584	-0.32736537328176	106.517480272772	-26.0190136595038	35.7239971551373	
1347500000	-26.7482536211319	-0.0309673773559867	-0.329265181363905	101.97997898391	-0.328339879746789	102.038916901087	-26.0104420970578	32.8762467437331	
1350000000	-26.7748738974806	-6.61222176929816	-0.328641228756616	97.5100677786344	-0.326758177141618	97.578201704164	-26.0231890918274	30.0244569860243	
1352500000	-26.8482577374303	-13.1945680606531	-0.329642132944899	93.0293546015474	-0.329417466375276	93.0897690129715	-26.0943828686735	27.1374304074261	
1355000000	-26.9350211295605	-19.8391892842035	-0.330402827172682	88.550915765484	-0.32957286667671	88.6141087914565	-26.1899958123739	24.1979396636097	
1357500000	-27.0546066823706	-26.6207182106812	-0.331204268623504	84.0695897880358	-0.329859160591501	84.133088572598	-26.3332899589517	21.2911826175043	
1360000000	-27.1970810138973	-33.3018824774071	-0.333451516078615	79.5894946518517	-0.33207058832366	79.6514379833911	-26.5061707639959	18.4657467047819	
1362500000	-27.3745645186266	-40.1478934297932	-0.332262644084022	75.1083173537928	-0.330136723157216	75.1770414219933	-26.7185558973662	15.4965817406177	
1365000000	-27.5717547052021	-47.0588427817898	-0.332444225459939	70.6312021290382	-0.330955882271519	70.6929516839719	-26.9695351226486	12.6159215216533	
1367500000	-27.7854096679121	-54.1441298679029	-0.332198534538755	66.1448663237775	-0.329956374333258	66.2130946203759	-27.2574312370269	9.7497112027662	
1370000000	-28.0383354309545	-61.1859677860484	-0.330699461127393	61.6600027705324	-0.328776184274107	61.7286954005294	-27.6057869548468	6.87927824970415	
1372500000	-28.2947100659142	-68.3674764152529	-0.332029422702473	57.1789381661203	-0.329924620400484	57.2443812773029	-27.9659617243031	4.13295311973231	
1375000000	-28.6000899741884	-75.5869717027707	-0.331123554595987	52.6926689869407	-0.33007916901057	52.7638878173997	-28.395675878479	1.43968681271002	
1377500000	-28.911063212885	-83.1148340867567	-0.331973841341574	48.206364177476	-0.32893069038663	48.2748458271392	-28.8823017349543	-1.06522196773015	
1380000000	-29.2456348763237	-90.6794944786618	-0.331891071160786	43.7246600908765	-0.329620744535318	43.7887278937635	-29.3990497212653	-3.45471163925236	
1382500000	-29.6256250008527	-98.3246834720218	-0.331323689527045	39.2347643187074	-0.328816619218414	39.3018491293457	-30.0173801795956	-5.55069732776139	
1385000000	-30.0260853048276	-106.25141603004	-0.33143350496855	34.7511366658638	-0.328248995180586	34.8163610162955	-30.6792416832243	-7.4472966138956	
1387500000	-30.4704439400575	-114.571713803631	-0.330963359594545	30.2603143625643	-0.327616829051177	30.3262457116411	-31.4388795464435	-8.96394022716164	
1390000000	-30.9168172670695	-123.001981566282	-0.33025546256562	25.7680820550581	-0.326763856516366	25.8384998416564	-32.285113447482	-9.76521104368655	
1392500000	-31.3827235708754	-131.850867176693	-0.330279538180879	21.2899562545162	-0.326596358121424	21.3569468822367	-33.1942802642742	-10.5810649677515	
1395000000	-31.8920374211715	-141.138034009606	-0.329779757972777	16.8067269048042	-0.326784505511664	16.8662279535328	-34.2203386818487	-10.2166165874071	
1397500000	-32.4263630488624	-150.878292768048	-0.330492955048266	12.3167244192911	-0.327194857389221	12.383238780841	-35.2814134944507	-8.41553040393804	
1400000000	-32.9458721535016	-161.226274673667	-0.331565720824235	7.8365170974167	-0.328047751927078	7.89853613335644	-36.4357756301454	-5.19512801584407	
1402500000	-33.4471861843851	-172.102800426347	-0.330926436685216	3.34802321890369	-0.327283689960257	3.40825274463295	-37.5294764985932	0.756309280661427	
1405000000	-33.8809097858614	176.41210775196	-0.330768615883574	-1.13901997870482	-0.326662523076584	-1.07901693283209	-38.4604739405402	9.07101096119478	
1407500000	-34.2562825807996	164.01540246261	-0.331625015276245	-5.62608741861214	-0.327210438304843	-5.56268135536026	-38.9022171657707	19.6028782247714	
1410000000	-34.6017264653367	151.312011207895	-0.33106286478522	-10.1228881318928	-0.326576646956572	-10.0581283926505	-38.8082863286678	30.6022781478007	
1412500000	-34.7818335322889	137.857024303565	-0.332299757903869	-14.6007354659636	-0.328299405176608	-14.5401181500092	-38.2675157266871	40.6567672955293	
1415000000	-34.8276577578567	124.294431504039	-0.33307068602597	-19.0938381251876	-0.328805734181891	-19.0281255057192	-37.3207565503252	47.9032824271625	
1417500000	-34.680424247648	110.807603419822	-0.333913344309934	-23.5802292809091	-0.330525156142041	-23.51866843286	-36.237155355941	52.8031582759516	
1420000000	-34.3864566175313	97.5941795103463	-0.334409245010344	-28.0577341762689	-0.331193293471568	-28.0006560867516	-35.1350325503289	55.6675405629358	
1422500000	-34.0195287214843	85.1276375224455	-0.335323209336861	-32.5582261240981	-0.331641815420498	-32.5001789585445	-34.1462082200624	56.3321648234813	
1425000000	-33.5571261675726	73.2024144668172	-0.337393736296056	-37.0475396947354	-0.332713133212908	-36.9925980276219	-33.2105761116089	56.146059099181	
1427500000	-33.0017907509873	61.8514482816483	-0.336902978384591	-41.5392976753583	-0.333013391638061	-41.4778008897434	-32.3775680903171	54.9060956145732	
1430000000	-32.4435370532824	51.5464097920519	-0.339377945495546	-46.0377594103937	-0.33488556728294	-45.9709102941609	-31.6395286498105	53.2176891427213	
1432500000	-31.8456684203576	41.7555405035728	-0.339073603367732	-50.5132611725437	-0.334955518709579	-50.4511555498295	-30.9527900751632	50.9300253001688	
1435000000	-31.2884764674146	32.7440520086527	-0.340487299326064	-54.9961407989537	-0.336305169145349	-54.9327087003251	-30.37367895904	48.3255790580719	
1437500000	-30.7566231068652	23.9952361228361	-0.340826517842101	-59.4789027982134	-0.3374466759638	-59.4207313137376	-29.857123992228	45.3430519500059	
1440000000	-30.2406802663132	15.866643742481	-0.340282443125339	-63.9616266172712	-0.337760865703255	-63.9026407394944	-29.4025028728514	42.1954220052643	
1442500000	-29.7460260499486	8.1588470987068	-0.343141953197996	-68.4496725663553	-0.339607662783692	-68.3899907595676	-29.0069934198446	38.9651928990633	
1445000000	-29.3176814173909	0.734575395817859	-0.344292303409171	-72.9356465151613	-0.339455156149852	-72.8653359366683	-28.6497564657979	35.4987631189838	
1447500000	-28.9025302819308	-6.40173279024783	-0.344473054119813	-77.4118219037014	-0.340855438598396	-77.3464835101696	-28.3599043399338	31.8184474438836	
1450000000	-28.543746499978	-13.2128022664135	-0.348085227960564	-81.8782574257446	-0.342128853142595	-81.8268553101625	-28.0983284916725	28.2274597163247	
1452500000	-28.2380565450689	-19.8825271693964	-0.346638356363074	-86.3633965671797	-0.343894665771242	-86.3025301658715	-27.9246742687715	24.3480710503118	
1455000000	-27.9744867372676	-26.302109295656	-0.346592730035942	-90.838598719631	-0.344654007914302	-90.7747273108545	-27.7887683521071	20.4097267337152	
1457500000	-27.7618536503549	-32.5759884580667	-0.347713984639771	-95.319302730009	-0.344784913839313	-95.2579712388876	-27.6760698715787	16.5240961787716	
1460000000	-27.580031224104	-38.7097222866036	-0.347208860115459	-99.8095288102656	-0.34474658427208	-99.7301089638329	-27.637760852806	12.5401451183842	
1462500000	-27.427217365851	-44.8478504502638	-0.348471104262111	-104.279783120889	-0.346087280272682	-104.213413631612	-27.5923940930111	8.57646422116629	
1465000000	-27.3270949560168	-50.9595236609263	-0.349830636107158	-108.752651303841	-0.346319087923257	-108.708592916693	-27.6000867964124	4.49704689025646	
1467500000	-27.2641987621821	-56.8401610428047	-0.349438918111273	-113.24071334156	-0.346461821805842	-113.176890868536	-27.688721113464	0.444517045972939	
1470000000	-27.2569879210245	-62.70165253314	-0.350111617477868	-117.714813214892	-0.347532877861666	-117.662151209019	-27.7878617163466	-3.72241428716267	
1472500000	-27.2922995230354	-68.5166205056318	-0.349771043143417	-122.205157605134	-0.346674768359209	-122.138800171623	-27.9643628613381	-7.84043576723661	
1475000000	-27.3867079107717	-74.1734510881763	-0.348990781421595	-126.683865095598	-0.34646491286812	-126.631680925104	-28.1701214206316	-11.9277413502301	
1477500000	-27.5169780078305	-79.9812661242977	-0.34890377704099	-131.17484561781	-0.345997487404065	-131.098554485241	-28.4538557879313	-16.1107568522243	
1480000000	-27.7043736040108	-85.7484058989322	-0.347999347506368	-135.667181334853	-0.343262694637966	-135.576209576715	-28.7891150623852	-20.0939526548146	
1482500000	-27.928559016371	-91.6137226958415	-0.347538203360075	-140.141992738261	-0.34457946342583	-140.066243960077	-29.1631145919704	-24.2216023662292	
1485000000	-28.2321247367551	-97.4395338306236	-0.347433489335678	-144.630498057108	-0.343418732128388	-144.559005301818	-29.5986760031696	-28.2263556709171	
1487500000	-28.6027531774405	-103.292187145861	-0.346914220869585	-149.114063271125	-0.343355702362117	-149.037944588708	-30.1575082145788	-32.298569254693	
1490000000	-29.0509865378536	-109.292856004757	-0.346677081854065	-153.590552846004	-0.345072333789195	-153.517828329266	-30.7840687013073	-36.2292879387074	
1492500000	-29.5959843277268	-115.328742784439	-0.345716086569627	-158.084889604368	-0.342431469116903	-158.005506585613	-31.51728561399	-39.668545431824	
1495000000	-30.2111719833274	-121.708136825321	-0.347335377262781	-162.577806871775	-0.340209774318269	-162.485517290905	-32.3606501344768	-43.0920108457274	
1497500000	-30.9698080284025	-128.330563850418	-0.3448625224067	-167.060916287013	-0.341008626887207	-166.970557186003	-33.4153283564289	-46.1005460509214	
1500000000	-31.8419415886024	-135.28387802985	-0.344540946810242	-171.554001095067	-0.33813746590817	-171.462656314865	-34.6079230861606	-48.3046632985743	
1502500000	-32.8607520531382	-143.135902227552	-0.344066272954581	-176.028774427826	-0.340400231733767	-175.940800870356	-36.0858424089136	-50.5171150463447	
1505000000	-34.0939581189951	-151.943632850024	-0.343438486600091	179.484405612297	-0.339845379869335	179.575590037335	-37.964186671502	-50.9589888687061	
1507500000	-35.4772078069356	-162.197372229172	-0.344536769718395	174.998900145517	-0.340741456247331	175.082336934951	-40.2548654100975	-48.1463739543574	
1510000000	-37.1616463371499	-175.52979120146	-0.343203483412024	170.521321858117	-0.34188086278817	170.611228344417	-43.2859543459686	-38.5568172622801	
1512500000	-38.9418133569935	167.032396096583	-0.345911961307824	166.017640663672	-0.342329951364676	166.1056909802	-46.0739633947559	-15.2299848082193	
1515000000	-40.47437722856	142.41302334591	-0.347828221068907	161.534518311831	-0.342696317959636	161.61864117432	-45.9728387489677	21.6347352741308	
1517500000	-40.707099620065	113.854667602238	-0.346769906580336	157.036470948061	-0.343183496961261	157.119915666728	-42.9569683799721	43.773847790128	
1520000000	-39.5309488724958	87.1826925876856	-0.349756772137147	152.536922106574	-0.343677902677696	152.615355349258	-40.0195320288743	52.6360946999985	
1522500000	-37.6838822014586	66.4905223438032	-0.347734635421249	148.054255530282	-0.344029911097021	148.135320170583	-37.4556274922432	54.9124629406769	
1525000000	-35.7988906343323	51.4485614274733	-0.34884132411017	143.574838670159	-0.343921630356433	143.653860754245	-35.4577115405637	54.9899876338772	
1527500000	-34.1238759626936	40.0169544333508	-0.350221107895511	139.07340608356	-0.346266454839962	139.158525033012	-33.8373443735035	53.211941253061	
1530000000	-32.6587652969573	30.5863160365735	-0.348925649088492	134.581144015034	-0.347082268268989	134.67732915713	-32.489200844594	50.3852341244817	
1532500000	-31.3509888144034	22.6560786393856	-0.352628651762958	130.100635052141	-0.348702003461869	130.181275100836	-31.3542359963247	47.573807206267	
1535000000	-30.2611166123585	15.6156509684743	-0.354166348673639	125.612574759053	-0.349547811087711	125.694245903767	-30.3697240974763	44.1869653919163	
1537500000	-29.288127672185	9.09978855611498	-0.355070819112372	121.130804026938	-0.35158010057985	121.208199248116	-29.5216292301838	40.7143735615617	
1540000000	-28.4424419555101	2.99745647186951	-0.357303019838474	116.656068733756	-0.353498858122578	116.715886381352	-28.7631448601446	37.1260977841336	
1542500000	-27.7312733365802	-2.91805306857232	-0.358144038686489	112.164757609514	-0.354237094477169	112.244233114218	-28.1148610789518	33.1075951238271	
1545000000	-27.0916681265175	-8.5475209104107	-0.35937646494524	107.682657865851	-0.355695106776636	107.768074623086	-27.5458110528053	29.0968768929688	
1547500000	-26.5398640544166	-13.8047781449454	-0.360316891908568	103.205913837525	-0.356559766624272	103.286943419251	-27.0699066282785	25.1297546636848	
1550000000	-26.077556982597	-18.9748416486412	-0.36072264284287	98.725350710125	-0.357025890281969	98.8286894434562	-26.6811159965203	20.9472251209013	
1552500000	-25.6649102787208	-24.1233540820506	-0.362094434906521	94.2566627210429	-0.358686844741077	94.337636490507	-26.2854704387234	17.0196834610565	
1555000000	-25.3171084207777	-29.2178804421364	-0.362673272861085	89.7827511806624	-0.360676447127443	89.8590274812536	-25.9700579723869	12.9392893153917	
1557500000	-25.0443771650902	-34.0542537744684	-0.364499480372823	85.306770563991	-0.361194661180753	85.3824817389464	-25.7198107887086	8.83297739137248	
1560000000	-24.8246519571261	-38.9969622582171	-0.365211367858167	80.8323641950808	-0.364842896179524	80.8942657505093	-25.4993256913067	4.7505884402049	
1562500000	-24.6692928054635	-43.7539205120935	-0.365525128738344	76.3523765192158	-0.362323959609016	76.4292031197747	-25.3911892513521	0.680200572139883	
1565000000	-24.5678890578305	-48.5350916037461	-0.366099204124192	71.8766152722224	-0.362806849674171	71.9515790419967	-25.3091170265387	-3.36928045804323	
1567500000	-24.5202762224167	-53.3462138404676	-0.366066699704514	67.3988286753477	-0.362228035878696	67.4758639594935	-25.2921939463663	-7.43975302237542	
1570000000	-24.5510065608048	-58.0292505776553	-0.364821673019815	62.9186178938981	-0.358795580265093	63.0033073596282	-25.3394004859752	-11.3953111446777	
1572500000	-24.6261877553861	-62.7419835498076	-0.365770010996019	58.4390122576419	-0.361928076807152	58.5205768788775	-25.3957585080384	-15.4643228037718	
1575000000	-24.763542522179	-67.4537614180803	-0.365626462228106	53.9646596265061	-0.361797311931347	54.0443319589734	-25.5235097091629	-19.3887857884045	
1577500000	-24.9558023564138	-72.0740903704865	-0.36453081745663	49.4802797979247	-0.362246785744374	49.5591310561062	-25.7151108639828	-23.3253029062175	
1580000000	-25.2219139736187	-76.8354368639535	-0.365604289873498	44.9942260965828	-0.365501403930061	45.0801208051662	-25.9691658823266	-27.3327176628013	
1582500000	-25.5618800144772	-81.396499528743	-0.363421069740293	40.5108613771351	-0.360911570128449	40.5931637897864	-26.3117585619353	-30.8841402404503	
1585000000	-25.9880625001404	-86.0456486192242	-0.362931895485883	36.0162551671681	-0.360231330690113	36.1019285875273	-26.7182024137902	-34.4569402128801	
1587500000	-26.4998146366256	-90.7987949439967	-0.362602437727326	31.5414700358121	-0.359204861547341	31.6198003606222	-27.2259279198604	-37.9984833277802	
1590000000	-27.1285453462063	-95.4166057939457	-0.359211178805904	27.0534603397979	-0.355669204758366	27.1253359051077	-27.807266466059	-41.105035425442	
1592500000	-27.8704631461701	-100.194588059283	-0.360354944743872	22.5701085835403	-0.357435571280984	22.6473456285297	-28.5068649313874	-44.4700656820605	
1595000000	-28.7574656384176	-104.92564104468	-0.360944505638999	18.0645874529145	-0.355913644179754	18.1624526276593	-29.3247572192641	-47.1371943022883	
1597500000	-29.8515243313839	-109.962474533059	-0.359550160328258	13.5929695634871	-0.355757555105892	13.6788482020976	-30.3470226109788	-49.4319224231673	
1600000000	-31.20819304108	-115.429645421434	-0.363975548384834	9.11778488132986	-0.360188496914712	9.20177420861142	-31.6184705248629	-51.016548960247	
1602500000	-32.855227933188	-121.052889949443	-0.360573778307032	4.60167680520653	-0.357014634365498	4.69041329825257	-33.0515803794367	-50.992429372234	
1605000000	-35.0540869870503	-127.744498495894	-0.362397913748647	0.118957267564321	-0.359146735272976	0.207223815504698	-34.7883120876885	-49.2096674943961	
1607500000	-38.1138616817586	-135.7906813878	-0.361500532673261	-4.37993775342864	-0.358549086333129	-4.28623932341759	-36.8878769237772	-43.3443339775706	
1610000000	-42.8119355003251	-150.165005821639	-0.361457173258372	-8.87413100378063	-0.357666455336344	-8.78389638690258	-39.1316489207412	-30.4573264857272	
1612500000	-50.7720952536054	158.573788316616	-0.363259369856594	-13.3678615097688	-0.359526844614151	-13.2757480911613	-40.5253862561436	-7.6162725668118	
1615000000	-45.4419472276645	73.7483003648084	-0.364370281151937	-17.8580507405448	-0.36040180540892	-17.7758578180796	-39.6458546198689	18.0749196847537	
1617500000	-39.3568803886569	53.285354140705	-0.365341760856706	-22.3532581352992	-0.36163670167082	-22.2591028859905	-37.391621164759	34.6080783828149	
1620000000	-35.6589991649577	44.0353385812307	-0.36680106353479	-26.8494515875633	-0.362272085892367	-26.7611206205322	-35.0658773141648	42.7933967284541	
1622500000	-33.053491245591	37.0025914307003	-0.367979788535616	-31.3456898620283	-0.363664319969447	-31.2566284838084	-33.0553463301102	45.8087570530644	
1625000000	-31.0980800639296	31.3783095796307	-0.37072202001307	-35.841013138436	-0.365480474852244	-35.7480117080896	-31.3315857797412	46.3808350974468	
1627500000	-29.5020454743378	25.9820086993176	-0.37232724074527	-40.3302456682984	-0.367965791097923	-40.2415401053771	-29.86452182401	45.5252718810911	
1630000000	-28.2011290875058	20.9460214660462	-0.373417306712232	-44.8228303030827	-0.369325444454994	-44.7350917683068	-28.6419092278555	43.6995631581594	
1632500000	-27.0878820120923	16.1679440789098	-0.37594011506868	-49.3118339227435	-0.370646010449487	-49.2201084793686	-27.5735837573478	41.3525387128715	
1635000000	-26.1464909602755	11.3751364967559	-0.378628154926899	-53.7925340860119	-0.373797032629662	-53.7073888028601	-26.6561242298134	38.6859577457737	
1637500000	-25.3246211084309	6.76333149708579	-0.380125424061874	-58.2835307672959	-0.377102102977868	-58.1914061100562	-25.8348492433887	35.6520092886433	
1640000000	-24.6133407258091	2.23174601603736	-0.382768462345002	-62.7680840303426	-0.379558014006315	-62.6720753673374	-25.1216423149282	32.4253708809421	
1642500000	-24.0161289789221	-2.20177768565785	-0.385176144636898	-67.2476029147642	-0.381018327104305	-67.1574801007822	-24.5126273099058	29.1426109712855	
1645000000	-23.4931548730976	-6.64153827839188	-0.386280836618085	-71.720599125346	-0.382842627935646	-71.6265338606872	-23.9740513000526	25.7452827272801	
1647500000	-23.0510261743256	-10.988731421463	-0.388873267156912	-76.1978134809835	-0.384897939281142	-76.1076362027835	-23.523605835953	22.1970995390258	
1650000000	-22.6614023095875	-15.3556234572438	-0.38925111351651	-80.6778174249417	-0.386944984749322	-80.5821322554969	-23.1309580608675	18.6639371534802	
1652500000	-22.3544579000258	-19.7402584920434	-0.392199942646373	-85.1424118933432	-0.387682081871938	-85.051312178359	-22.7984831419777	14.9732366441228	
1655000000	-22.1069630009917	-24.0369990815899	-0.394370809989486	-89.6139888538519	-0.389534592126684	-89.5248913790595	-22.5268309097371	11.365266576439	
1657500000	-21.9234587657375	-28.3332624394067	-0.395089215816001	-94.0851539473073	-0.390375949893309	-93.9912170938524	-22.3075265904198	7.70282530991894	
1660000000	-21.7901034387314	-32.636891652368	-0.395559974785552	-98.5472287992585	-0.391870801886909	-98.4546788111688	-22.1531116745042	4.0096033525116	
1662500000	-21.7119812341384	-36.9306919419785	-0.396312713472745	-103.025222958931	-0.392661281650187	-102.932516189358	-22.0483005903376	0.372648918886129	
1665000000	-21.6843378381588	-41.2362384075231	-0.397672817090441	-107.501025472453	-0.393047188416774	-107.401681728055	-21.9865916295266	-3.32298030593753	
1667500000	-21.712081498516	-45.4658582990086	-0.397261492277916	-111.975565119612	-0.393331952438541	-111.879335710967	-21.9815848547323	-6.94347286689768	
1670000000	-21.8017442470894	-49.736786677256	-0.398027519879335	-116.454916341789	-0.393983636962517	-116.355188513547	-22.025180483699	-10.5764568034244	
1672500000	-21.9552942513676	-53.98388078067	-0.396071059239239	-120.925022045535	-0.392950823044683	-120.825533465665	-22.1319546865772	-14.1143488775279	
1675000000	-22.161712015363	-58.2528993839614	-0.396101400663228	-125.402612515668	-0.392171754371406	-125.301561279865	-22.2925080397815	-17.68788710578	
1677500000	-22.4316745856588	-62.5188664215493	-0.394756086919471	-129.877892664582	-0.390790189903019	-129.778009111756	-22.509205741832	-21.1710323559049	
1680000000	-22.7656691155987	-66.7528929163584	-0.39222854607534	-134.34176494109	-0.389232296799511	-134.25310388033	-22.8026700480156	-24.5817965879673	
1682500000	-23.1721640864879	-70.9521293398049	-0.392208468516123	-138.838223420473	-0.388579134478309	-138.735137949069	-23.1378122794233	-27.9277751273987	
1685000000	-23.668009618704	-75.1849889911094	-0.391738383137127	-143.319857578138	-0.387964731003142	-143.215743409174	-23.5529636372331	-31.1387865981599	
1687500000	-24.2613288676019	-79.3893217435525	-0.389450631700047	-147.802764800793	-0.385115064304802	-147.700824819257	-24.0472722918201	-34.139534864002	
1690000000	-24.961818300719	-83.5167311768512	-0.389142341096767	-152.294352637283	-0.382723518791233	-152.183286942182	-24.6238365481247	-37.0071882031297	
1692500000	-25.7790864731834	-87.6575501830664	-0.386299911031747	-156.773977231052	-0.381304880179675	-156.67539745316	-25.3140938527498	-39.5011291676392	
1695000000	-26.739376354803	-91.7089000219347	-0.383274717585831	-161.266631977842	-0.379951325874216	-161.150081351058	-26.1068000250664	-41.6439033454349	
1697500000	-27.9062376314879	-95.8564618004165	-0.382339760089803	-165.753980844013	-0.378133094038625	-165.648920176535	-27.0337861004391	-43.3169534467982	
1700000000	-29.3038201575254	-99.8388791224645	-0.379213888741954	-170.248050902161	-0.377314702993927	-170.135855317944	-28.0917231319566	-43.9650350030486	
1702500000	-31.0972098157527	-103.628672277986	-0.379675145048026	-174.741783326355	-0.375558184695615	-174.627501766414	-29.3587108180482	-43.8016516976953	
1705000000	-33.415596852456	-107.191845443798	-0.378849229595912	-179.235463475773	-0.376449343437064	-179.126870807253	-30.8313959193432	-41.6233447513898	
1707500000	-36.6743345838615	-109.836015984551	-0.379424031851529	176.269548331198	-0.375385638225733	176.379936821356	-32.4767326052635	-36.5186549141439	
1710000000	-42.133147440178	-109.307418226969	-0.379880374961868	171.777925835865	-0.373684198692097	171.87226278189	-34.1983588881263	-26.9899308861523	
1712500000	-56.3586892791499	-63.4385321035434	-0.378665806778033	167.277612611468	-0.375456837617272	167.385620389153	-35.381334357835	-11.5426687008196	
1715000000	-43.8687208915974	41.73251414649	-0.378804586781925	162.774627461852	-0.375734666825288	162.889114514542	-35.4318066334299	7.66879053091721	
1717500000	-37.4415391871664	42.6781291842684	-0.380556468151035	158.277405519787	-0.375968432597205	158.380942895755	-34.2748430776621	24.0315444330543	
1720000000	-33.835983830666	40.3947415717706	-0.381276248916734	153.774844455253	-0.376257091650652	153.886557627229	-32.5723897093132	34.2321196692361	
1722500000	-31.3168943865134	36.9887543301259	-0.38371006797063	149.273647478926	-0.378544265785648	149.373561899612	-30.8242409389689	40.1562180502578	
1725000000	-29.4014728765455	33.2196102922156	-0.384554292692686	144.777371387677	-0.380426494488645	144.873694670181	-29.2696091447427	42.5752026890477	
1727500000	-27.8692768383968	29.2434146331474	-0.388011772194545	140.286213703256	-0.382893369284758	140.380490653168	-27.8964640140198	43.0604369141329	
1730000000	-26.6230919646149	25.1364642109662	-0.391485661114766	135.792951542221	-0.388266848428889	135.887602531117	-26.7019465130495	42.2720727195847	
1732500000	-25.5900839631149	21.0153071345906	-0.392841121928446	131.300756295266	-0.388339722460876	131.40333411032	-25.7078611802551	40.7845921750841	
1735000000	-24.704809986623	16.9283823903052	-0.395404644764791	126.81192246032	-0.390748338031765	126.912359959073	-24.8231343150641	38.7926257146716	
1737500000	-23.9581542051143	12.6717531527006	-0.398330956285847	122.329279797917	-0.393701628130093	122.423982771673	-24.0621922186187	36.3797007195134	
1740000000	-23.3001832169844	8.49699629654627	-0.399132377605263	117.838938301562	-0.394166566504627	117.938864235166	-23.4047859004753	33.7322817016582	
1742500000	-22.7451444638557	4.23254847047926	-0.402797534953402	113.367012645912	-0.399059512126673	113.461278527952	-22.8333972548924	30.7822669373158	
1745000000	-22.2975418216136	0.0244631511227411	-0.405666523587942	108.895552858926	-0.400654608037442	108.987206118098	-22.3442783872455	27.7093508438986	
1747500000	-21.9070853550226	-4.21274210147385	-0.407690576376609	104.42386202192	-0.403169608469937	104.515007840276	-21.9300073984456	24.5329256924457	
1750000000	-21.5927593188986	-8.50866763757266	-0.410534148894656	99.9650480238092	-0.407192662649225	100.053491219451	-21.5862190411578	21.2044811425256	
1752500000	-21.3350969101538	-12.7323275498323	-0.412489937674471	95.4894608038161	-0.408301777602422	95.5804817881692	-21.2965723485862	17.8884327794424	
1755000000	-21.1452097967429	-17.0040789400793	-0.41433242333351	91.0207873390687	-0.410796513592206	91.110548111877	-21.0658775121097	14.4939435923374	
1757500000	-21.0179616081493	-21.2809427601855	-0.416253171599644	86.5566995933336	-0.411930037121156	86.6437895325261	-20.8942957023421	11.061728787955	
1760000000	-20.9467788573707	-25.5805229098644	-0.418993364020049	82.0769749124424	-0.412811102744846	82.1712067587567	-20.7733322128817	7.61040335272481	
1762500000	-20.9288184965672	-29.8811675162701	-0.418232342110896	77.6187209809836	-0.413820205519638	77.7138718140671	-20.7277838041401	4.19645663542679	
1765000000	-20.9686193743976	-34.1815834306276	-0.417914677830087	73.1535392387907	-0.414140016921109	73.2436072362631	-20.7206875888054	0.804048264642518	
1767500000	-21.0651188218335	-38.4917771323505	-0.417427392535437	68.6846304696285	-0.413840259980163	68.7777842217401	-20.7683086811109	-2.58498106320103	
1770000000	-21.2209061152391	-42.7863328041306	-0.415603812139752	64.2111576328484	-0.413844948795721	64.3118855715813	-20.8767152770561	-5.94214350434962	
1772500000	-21.4398369567283	-47.1126806815601	-0.416385616325076	59.7407673444331	-0.412035255371525	59.8328853217644	-21.0303057963813	-9.30349944173477	
1775000000	-21.7176085822006	-51.4708891427164	-0.415281594102939	55.2729308888005	-0.411916175879769	55.363091667825	-21.241047342159	-12.522222701653	
1777500000	-22.0669874047204	-55.7980795680572	-0.413455436138918	50.7976003608211	-0.410313889373664	50.8868608352005	-21.51494731287	-15.7359216147925	
1780000000	-22.4967502493196	-60.1783236418759	-0.412170939447083	46.3227892107338	-0.407864213319738	46.4018493450952	-21.8594222900304	-18.8864386051099	
1782500000	-23.0015386760045	-64.4942591970792	-0.410448033290649	41.8400731230528	-0.406972560588004	41.9298287658038	-22.26832420739	-21.8279788086055	
1785000000	-23.5983716156454	-68.8889199298687	-0.408970795638329	37.3588391873924	-0.404646801978357	37.4461317743121	-22.7499342830128	-24.5953515952729	
1787500000	-24.2969729175651	-73.246037643963	-0.40641044497204	32.8759289232198	-0.403325642668465	32.9609326679466	-23.3069774960427	-27.1338679958159	
1790000000	-25.1210389713459	-77.7253378102079	-0.404777546288547	28.3896853529781	-0.399942667396771	28.4889247399966	-23.9388015266408	-29.3386421222847	
1792500000	-26.1158065394381	-82.2099113809064	-0.402044349660491	23.90179408093	-0.397662924995136	23.9940032616674	-24.6924732297138	-31.2641456972154	
1795000000	-27.2731112557956	-86.7110614587956	-0.400371974747502	19.4166515784392	-0.396211223539494	19.5074246993318	-25.5478219914324	-32.6253412262704	
1797500000	-28.7148075469699	-91.2582788794264	-0.39857540546147	14.9203262025577	-0.394152893111081	15.0179607170007	-26.5192901405513	-33.2330906550576	
1800000000	-30.4919929276474	-95.7469833280114	-0.397387932392632	10.4301515913301	-0.394822856334924	10.516603235637	-27.6414578996329	-32.6597405021356	
1802500000	-32.7818319742159	-100.818397327325	-0.395983213685278	5.93476705886803	-0.392042919393124	6.03797797243436	-28.8692716015092	-30.61140778419	
1805000000	-36.0126736900665	-106.003341974555	-0.394547993593408	1.44052289038054	-0.39070816248674	1.53952259901837	-30.2225168971204	-26.5040324009386	
1807500000	-41.315371692188	-112.739677161887	-0.394305908815933	-3.05363801278399	-0.390098550712143	-2.96179070319656	-31.5623345583488	-19.1113658182573	
1810000000	-56.2019503391334	-144.279398296532	-0.393153107206921	-7.55280145545095	-0.387289313824332	-7.46387094403962	-32.6468900811553	-7.95594694377908	
1812500000	-44.449695159928	70.855634154217	-0.39484998536844	-12.0494601654178	-0.390256418016365	-11.9644110007886	-33.0025826736718	6.37233887455403	
1815000000	-37.6097622893918	62.5596393921509	-0.395233232403181	-16.5560982194305	-0.391158307607109	-16.4582030706047	-32.5134888402168	20.4593496887658	
1817500000	-33.8644859708775	56.9933131527234	-0.396188224339696	-21.0551418593198	-0.391673274973568	-20.956798328614	-31.3863760711092	31.2969456653507	
1820000000	-31.3149172273214	52.00417922719	-0.399408216930315	-25.5450392639977	-0.395030945104748	-25.4483247505914	-30.0326427145403	38.1726820587286	
1822500000	-29.3697923498826	47.3740271570392	-0.399851815141638	-30.0513531809044	-0.394947712237061	-29.9515580625512	-28.7156468943076	42.1419972419621	
1825000000	-27.8506512789646	42.749957231691	-0.402042235175961	-34.5479118158368	-0.397592513789162	-34.4470738960708	-27.4996440373138	43.9465477015328	
1827500000	-26.6043064236927	38.17918856297	-0.404202566578555	-39.043889226033	-0.400211488851218	-38.9447170671163	-26.4064590963889	44.2375617812085	
1830000000	-25.5557213832771	33.6936702457494	-0.406789151806886	-43.5451382144591	-0.402830315775297	-43.4459269618477	-25.4459506051732	43.5515884376986	
1832500000	-24.7029178333976	29.1605563710132	-0.409440600076702	-48.0280612386447	-0.405308896897818	-47.9280637239589	-24.6222431329037	42.1083575965758	
1835000000	-23.9765352146831	24.6668371241223	-0.411947868878946	-52.5185583482171	-0.407010046398652	-52.4143467933341	-23.898111399671	40.1912024383585	
1837500000	-23.3672920878053	20.1423257918286	-0.41407002228492	-57.0010870981439	-0.409650264914392	-56.901184857549	-23.276905325234	37.9129818583874	
1840000000	-22.8596617722937	15.6590856639633	-0.416930392903087	-61.4767184857497	-0.411623319170546	-61.3753495405608	-22.752382498839	35.3934952826145	
1842500000	-22.4307560004572	11.114902185799	-0.420056349237427	-65.9603129514934	-0.414599350538132	-65.8576975383693	-22.292178848661	32.6839872878028	
1845000000	-22.0826368878862	6.6317484104764	-0.422304178136606	-70.4325428425657	-0.417227727057362	-70.3316483275409	-21.9123816511782	29.833031193512	
1847500000	-21.7964624409682	2.12745469799525	-0.424437928295093	-74.9063279512037	-0.419030513595401	-74.8044007592486	-21.5984594838376	26.8983029586259	
1850000000	-21.5864610664698	-2.35107725001473	-0.426611195199467	-79.3763926355192	-0.421118295672992	-79.2739583146668	-21.348521123704	23.8077552111798	
1852500000	-21.4396446966561	-6.79797937204102	-0.427813312870373	-83.8456823113975	-0.422913725172289	-83.7426285439284	-21.1607192401114	20.7031963905536	
1855000000	-21.3521352185801	-11.289286837836	-0.429898211185672	-88.3093646997704	-0.423902864574599	-88.210395589261	-21.0302670691391	17.5471287300078	
1857500000	-21.3242788221604	-15.8511809626533	-0.430534202436729	-92.7802898928678	-0.424817777181358	-92.6787834433842	-20.9558977038589	14.3426083641319	
1860000000	-21.3533650329816	-20.4228145893484	-0.431599865000658	-97.2464451174028	-0.425739810279217	-97.1445266906089	-20.9391467706298	11.1945049171458	
1862500000	-21.4503819381691	-25.0442686120152	-0.431424836518883	-101.717037027319	-0.426120429608391	-101.616057118573	-20.9760845914316	7.98407426163163	
1865000000	-21.5997459412039	-29.621996427949	-0.431691143705055	-106.186429097989	-0.42537811468504	-106.08737011514	-21.0721532435627	4.8588448338095	
1867500000	-21.8229012018168	-34.2680731853258	-0.430431410364066	-110.660136386925	-0.425094946021228	-110.559303850837	-21.2241368539318	1.74569691177389	
1870000000	-22.1093215011582	-38.937691761648	-0.430661235203943	-115.13815930853	-0.424243655903697	-115.038289604912	-21.43711947411	-1.33408645800906	
1872500000	-22.4607625614786	-43.6785152526558	-0.42889155898065	-119.607126668339	-0.423995435152868	-119.505939487934	-21.69788355809	-4.24404139376974	
1875000000	-22.9000386918647	-48.4915386525674	-0.428419998726229	-124.086258293685	-0.421443279396631	-123.979519005587	-22.0302063843924	-7.10366741731823	
1877500000	-23.4195494186186	-53.331949767943	-0.426411912262643	-128.561873840562	-0.419430320997665	-128.465456564534	-22.427164114912	-9.75998652696514	
1880000000	-24.0303577076171	-58.3242017682717	-0.423491741855648	-133.035431946857	-0.417230842511134	-132.938244724886	-22.8878430715288	-12.2571653538984	
1882500000	-24.7503769600023	-63.3361182199806	-0.422404006570812	-137.528823483098	-0.416303925344947	-137.431244362156	-23.4393123216364	-14.5426875372968	
1885000000	-25.5808149642485	-68.5727818171934	-0.420971063553791	-142.012333853531	-0.414248582490884	-141.916580310462	-24.0617092361337	-16.5275096606423	
1887500000	-26.5847229385579	-74.0806072055083	-0.419411051042843	-146.503619244991	-0.413452583382284	-146.402098933587	-24.7863037042801	-17.9903824526527	
1890000000	-27.7808935574147	-79.8221175340973	-0.419876957220833	-150.995650585771	-0.413178879848427	-150.893500641792	-25.6174713343173	-18.7856851335259	
1892500000	-29.2172725264755	-86.3077102653584	-0.416401124680319	-155.483049289163	-0.410078611726651	-155.38667285041	-26.536770085629	-18.9296140456712	
1895000000	-30.9928493722225	-93.5769075570436	-0.415306135813914	-159.974853883764	-0.409001070343687	-159.877021666346	-27.5579483716299	-17.9648647988397	
1897500000	-33.2570779791079	-102.702960710326	-0.413646599921083	-164.471670224015	-0.407577335762757	-164.371385138669	-28.6724997158814	-15.4208892151729	
1900000000	-36.2429765863923	-115.73112043182	-0.411152769609204	-168.969652569011	-0.405219548067962	-168.871182291254	-29.8257799443324	-10.8600412772783	
1902500000	-40.1248789074006	-139.450509228669	-0.411789499625309	-173.461028803447	-0.405822228278607	-173.361080212811	-30.8662181272593	-3.530502530721	
1905000000	-42.8024978166923	170.464798373948	-0.411205037248612	-177.955982761217	-0.405681484417485	-177.861522105713	-31.623338096954	6.50157099454816	
1907500000	-39.7846471569295	123.393155895122	-0.411694644830549	177.548087522992	-0.405908645915482	177.64172076586	-31.8492410771182	18.1258480630053	
1910000000	-35.9644621651438	100.940823351052	-0.414962929312159	173.056664242996	-0.406642116428031	173.148455800981	-31.4016638230088	29.384464064642	
1912500000	-33.0399206582921	88.1017745212943	-0.414360893042529	168.54933711867	-0.406534957116581	168.638253410396	-30.5242762936547	38.4227327251588	
1915000000	-30.8752196970717	79.4328371474893	-0.414347132705384	164.052626313038	-0.408893505076535	164.142063296414	-29.4405013802637	44.4322543528554	
1917500000	-29.1633367858458	72.1592940738485	-0.417198710128087	159.55050935056	-0.410692780141978	159.6424162377	-28.3153625932251	48.2868131885343	
1920000000	-27.7749001330341	65.797548467432	-0.419007363843323	155.038105236192	-0.413505691522996	155.146167019401	-27.2475696797369	50.2633975064793	
1922500000	-26.6216405661172	59.9067540366904	-0.421800024665466	150.551873349587	-0.414801113810424	150.649512905622	-26.2778342812465	50.6946630455806	
1925000000	-25.6373845527233	54.312126892218	-0.423514020155032	146.057187717863	-0.417271083357066	146.147597588263	-25.4222504645467	50.2223640131067	
1927500000	-24.81420302785	48.9135090579134	-0.425222420131557	141.562362227429	-0.420189949822763	141.655955864736	-24.6580387562987	49.0560352756872	
1930000000	-24.1184099358709	43.732518646654	-0.42776461860408	137.07516081535	-0.423434659182045	137.16047487877	-24.0062553194856	47.3549819931266	
1932500000	-23.5271257732735	38.5633005820869	-0.430584994997038	132.579659140902	-0.426142085739509	132.681439429922	-23.4113997634888	45.37438744085	
1935000000	-23.036457733493	33.6223070176602	-0.433364082737442	128.096455870823	-0.428731673432466	128.195928687665	-22.9113313527343	42.9921560562361	
1937500000	-22.6153179144305	28.6970266693393	-0.435739402244375	123.61177389119	-0.431099181872631	123.705037526594	-22.4833291416971	40.3938328400115	
1940000000	-22.2726443326918	23.7164924290607	-0.438478115203417	119.13102212767	-0.432071942092776	119.232490790806	-22.107457171783	37.6282827148896	
1942500000	-21.9937470745292	18.8060183434052	-0.440808658842956	114.658298508503	-0.435772164898759	114.751727946425	-21.830663370236	34.7304298131167	
1945000000	-21.7850331796783	13.9603425964109	-0.44280896399617	110.178920942344	-0.437797172687066	110.276434736109	-21.5948886494458	31.7351547744633	
1947500000	-21.6359869648161	9.01825127581334	-0.444444003829737	105.710105950382	-0.439044480151247	105.807934285219	-21.4180104418556	28.6754774264355	
1950000000	-21.5423894947783	4.19460685890723	-0.446388692025292	101.247853663615	-0.443033321489866	101.340918705387	-21.2988762753583	25.6310401065542	
1952500000	-21.5171164951342	-0.795715356815511	-0.44695732523564	96.7683670565015	-0.440988767423475	96.8791122734722	-21.2256618362666	22.4644531136742	
1955000000	-21.5388324453519	-5.64844712958619	-0.447641930441905	92.301443908194	-0.441982676296342	92.4037213988842	-21.2128189638149	19.2711440247194	
1957500000	-21.6128099430077	-10.6100195697434	-0.447660289665796	87.8300437187992	-0.443899050962706	87.9379029607406	-21.2518711800695	16.0906862179566	
1960000000	-21.7455432097376	-15.5253312937456	-0.449512336062201	83.3489356585156	-0.442723822532379	83.4559829402837	-21.3447025115162	12.8089209357006	
1962500000	-21.9246952209762	-20.4824978064779	-0.448628207406774	78.8906158775478	-0.443241931165363	78.9977415439936	-21.4779089652889	9.64302649404286	
1965000000	-22.168014651841	-25.5105571102351	-0.44840812544325	74.4127854378218	-0.443214517954336	74.5206013058371	-21.6752251175018	6.45113209879134	
1967500000	-22.4800291691798	-30.6358636680847	-0.445938011855401	69.9402566939496	-0.441071493786282	70.0501789705024	-21.9272036242977	3.29671772458467	
1970000000	-22.8496343679224	-35.8151321663348	-0.443591794554753	65.4716575403353	-0.438871932912006	65.5847367226202	-22.2309253912455	0.224316692207731	
1972500000	-23.3004546429186	-41.0559518808506	-0.443595533284941	60.9844352110045	-0.437749308094458	61.0957052489414	-22.6099815958261	-2.71721238716772	
1975000000	-23.8067054371928	-46.4672581750193	-0.441839798983244	56.5101270967021	-0.436773010987975	56.6185592307102	-23.0490405952641	-5.54359748205912	
1977500000	-24.4123561425964	-51.9290672504966	-0.44014724748289	52.0254222481937	-0.434809363340387	52.1373996144872	-23.5689598250001	-8.20256925936215	
1980000000	-25.1065372533121	-57.5163739808384	-0.441516186664611	47.5374583407697	-0.434464508951637	47.6493669545809	-24.157324023746	-10.5984691558566	
1982500000	-25.9160481934515	-63.5388721105465	-0.436984290699356	43.0522805293237	-0.431025784767667	43.1723349215032	-24.8327585873092	-12.9159785756253	
1985000000	-26.8602188499869	-69.8260500842004	-0.434421989098812	38.5650440400091	-0.429964709604204	38.6761193706684	-25.613583004574	-14.8109907278439	
1987500000	-27.948600080603	-76.5302028911686	-0.433340329279665	34.0707755538107	-0.427153784212166	34.1898618022739	-26.512086309935	-16.1922397804418	
1990000000	-29.2467497784396	-83.99991764408	-0.430697250988988	29.5752447329887	-0.42473147012368	29.7004217343309	-27.5328436677688	-16.827581933001	
1992500000	-30.7596437039718	-92.5456389283814	-0.429965952180141	25.0887118916643	-0.42293284910001	25.2059878256221	-28.6767307248487	-16.3110108424067	
1995000000	-32.562437107237	-103.092340490708	-0.427410251791214	20.5946718386202	-0.421796340902663	20.7171198010027	-29.954779921019	-14.4154379603827	
1997500000	-34.7190848554403	-117.125662968668	-0.426355767250393	16.1003301306905	-0.419911358922417	16.2268261797988	-31.3366315992729	-10.3394198971492	
2000000000	-37.0567291630344	-137.191311150388	-0.425124888588926	11.6121659328314	-0.419441648505958	11.7263533544073	-32.7038245954493	-3.00298218233887	
2002500000	-38.8468276441777	-168.011561501128	-0.424460268790296	7.10851217438224	-0.419266440498434	7.234138761065	-33.8608372774202	8.29073056535113	
2005000000	-38.4761137947976	156.778383325564	-0.424882373092269	2.61657025878638	-0.419689796050764	2.73748876641025	-34.2828455478063	22.7410691582365	
2007500000	-36.4381085278968	129.682872150894	-0.424669454972931	-1.88083292787334	-0.418955244809239	-1.76584165142465	-33.8608705510351	36.9096787910048	
2010000000	-34.2081837357818	111.566555474029	-0.426131697040208	-6.38130186786348	-0.418980576543674	-6.25768330697359	-32.7655517647998	48.1919447952033	
2012500000	-32.232079498089	98.9798107852203	-0.426788240218762	-10.8771372813087	-0.420585313647263	-10.7569182867828	-31.4615892414375	55.1627028193065	
2015000000	-30.5761176562778	89.2441499894374	-0.430131106856567	-15.3819782257847	-0.4218747702753	-15.2565133466278	-30.144585542693	59.1171451593379	
2017500000	-29.2028659349872	80.7551750334667	-0.430234884725184	-19.8736698111021	-0.423586723732758	-19.7532137679735	-28.9404167002332	60.9066249701524	
2020000000	-28.0673174539575	73.3292806096478	-0.432684199421519	-24.3755813645379	-0.425726491258378	-24.2472453256002	-27.8663187346572	61.2020197706229	
2022500000	-27.1045012348752	66.452700362485	-0.434590769559573	-28.8644438646255	-0.426152069835296	-28.7401261303569	-26.8963706862919	60.4677455767512	
2025000000	-26.2776773838017	60.1912068155929	-0.43745308540427	-33.3574440363498	-0.429038918232385	-33.2348367245375	-26.0886161479401	58.8974468708719	
2027500000	-25.5749909472892	54.1510695656269	-0.43834624257065	-37.8547490067325	-0.430570449506255	-37.729547601882	-25.3713439335814	56.9446916833622	
2030000000	-24.9784038221368	48.2822976130791	-0.440034318383164	-42.3465626919513	-0.431822232224607	-42.2239835778177	-24.7534695242814	54.5469967425813	
2032500000	-24.4578562144315	42.6060357830117	-0.443599667000053	-46.8301776332868	-0.435354876030602	-46.705656463252	-24.2281980827869	52.035082562869	
2035000000	-24.027428878334	37.0028669269613	-0.4450679647886	-51.3158941248273	-0.437410500755929	-51.1879377980668	-23.7724410847477	49.1864121362845	
2037500000	-23.6712962981316	31.4185766933327	-0.448211904874193	-55.7968505046179	-0.438768386641219	-55.6772609788933	-23.3901834227383	46.0977001287052	
2040000000	-23.3647756759988	25.8994454272469	-0.449387994450234	-60.2707325356966	-0.440652378630341	-60.1506458378898	-23.0679044239219	42.9565543463043	
2042500000	-23.1357502237556	20.4600889339357	-0.451924612308439	-64.7531851255045	-0.44238630763865	-64.6322112882836	-22.8051463136059	39.6724106646979	
2045000000	-22.9470327824396	15.0221543498416	-0.453787854669589	-69.22944524785	-0.44472833311783	-69.1046136204431	-22.5939606103559	36.2852229286819	
2047500000	-22.8109864874409	9.66664876143949	-0.455798148627674	-73.7007692895003	-0.446364655359833	-73.577274561752	-22.4462062779263	32.8842088231145	
2050000000	-22.729260075094	4.22685972468408	-0.456832578258448	-78.1731401391437	-0.447780772802086	-78.0542945361268	-22.3593381319976	29.4149898800999	
2052500000	-22.6869908372752	-1.20537454111206	-0.457912099531679	-82.6401219765747	-0.449007965371783	-82.5155872846836	-22.3106915696995	25.9037865332053	
2055000000	-22.7036477716208	-6.60224692031265	-0.459114436217583	-87.1096949954472	-0.449770291130851	-86.9916287832751	-22.3129137765426	22.3328312245055	
2057500000	-22.7656627233548	-12.0201756659179	-0.459093197328391	-91.5808740899593	-0.450404669645261	-91.4646944054911	-22.3617083656836	18.6635869513646	
2060000000	-22.8658560516589	-17.5425706905672	-0.458594733230464	-96.0515049607749	-0.44993574834464	-95.9366830897007	-22.4577022550803	14.9889611064599	
2062500000	-23.0122214423054	-23.0671955538243	-0.460035770341442	-100.525453880723	-0.450554311377543	-100.408789802039	-22.5989006167655	11.4128866892251	
2065000000	-23.2041707929327	-28.6518449455405	-0.458792794652955	-104.997326462711	-0.449704264678786	-104.879828898393	-22.783422588753	7.75127439323961	
2067500000	-23.449477884582	-34.2423348733302	-0.458666153590372	-109.471389046568	-0.449134749388256	-109.354585599339	-23.024659108213	4.12068577774612	
2070000000	-23.7283456917281	-39.9464204245059	-0.457838579540817	-113.943250281553	-0.448328410624045	-113.83058575906	-23.3250513458509	0.517420328528824	
2072500000	-24.0685585684266	-45.7279143763628	-0.456683668873551	-118.425218370545	-0.446850520072493	-118.30828804462	-23.6870761386893	-3.132297360354	
2075000000	-24.4586548309971	-51.549893280184	-0.455327113855414	-122.905833588072	-0.446177356972007	-122.785450313783	-24.106644189249	-6.7539410405881	
2077500000	-24.9107088333738	-57.5334624452582	-0.453903652627709	-127.383151995175	-0.444984576102272	-127.271303644009	-24.5978731907095	-10.2280885590801	
2080000000	-25.449864911425	-63.7200882494472	-0.452918153564345	-131.865557706305	-0.443470966607689	-131.753361769039	-25.153591810307	-13.6871056259442	
2082500000	-26.0516329130004	-70.140423283743	-0.45151915917708	-136.349159874734	-0.442219593477219	-136.238111986113	-25.784147608789	-16.9317689750635	
2085000000	-26.7184882222328	-76.8291002589065	-0.450169100597135	-140.838065121872	-0.440559505196875	-140.722910349138	-26.5111157024292	-20.0994786953405	
2087500000	-27.4450935121581	-83.6389480098469	-0.449243815739611	-145.32587059919	-0.439675497380527	-145.214308974545	-27.3603662082612	-23.1539602738625	
2090000000	-28.2874133527212	-90.9681750812795	-0.44749359733247	-149.816914149295	-0.438348512936206	-149.702107371872	-28.3281690771144	-25.9434919492104	
2092500000	-29.255390020212	-98.9841605100426	-0.444500825529477	-154.308410705326	-0.437146731745873	-154.188320778231	-29.4373796127604	-28.3903011412998	
2095000000	-30.3309073488133	-107.650593170613	-0.443565485468955	-158.797628625256	-0.43419227049161	-158.67911098586	-30.7549867682616	-30.1511232469214	
2097500000	-31.5355222813148	-117.527298661597	-0.441914486038349	-163.28506858486	-0.433892042715519	-163.17129893682	-32.2979059260572	-30.9477724161512	
2100000000	-32.8634666553613	-128.66239257184	-0.441201426927669	-167.781423438289	-0.43260462397465	-167.663494578221	-34.1801248460786	-30.0675592352797	
2102500000	-34.2799892510612	-142.591008384223	-0.439758174520005	-172.277300640881	-0.432643536841295	-172.155306155859	-36.4262579867601	-25.878764205319	
2105000000	-35.7127378389357	-159.693184942592	-0.440326331328228	-176.768797451267	-0.431048036323123	-176.654578425021	-39.0973515874397	-15.7906209492796	
2107500000	-36.7668745043035	178.830710256673	-0.439328733431778	178.738028118819	-0.43122668847069	178.855825141209	-41.344126172833	6.48697601114834	
2110000000	-37.1128808124655	154.726000312851	-0.440131372082254	174.238806684859	-0.432386422026097	174.359657174943	-41.3003457383523	36.3499418648818	
2112500000	-36.5489017415622	131.16697549438	-0.440072262835917	169.738421936295	-0.432527414317008	169.863026859515	-38.9954675276877	57.2421597950371	
2115000000	-35.3495976646975	111.425332657958	-0.441796567996718	165.247014073869	-0.434307043186609	165.367234972916	-36.4828071752455	67.224151375134	
2117500000	-34.0055350144773	95.591248175295	-0.443507645755778	160.73850807925	-0.435110189292447	160.867250309672	-34.3228751261909	70.8425285926403	
2120000000	-32.6687189171054	82.668167706354	-0.444362955108348	156.237766169869	-0.437361764546852	156.370527448907	-32.5527202882604	71.3632109687234	
2122500000	-31.4216110625428	71.7763445443911	-0.445830932923268	151.743040006266	-0.438795396688388	151.87224362544	-31.1005218902688	70.3380836170093	
2125000000	-30.3189986937397	62.2049441862561	-0.447168933192746	147.244621881108	-0.439969354294072	147.368925357582	-29.8912263099214	68.3261533805296	
2127500000	-29.3544902754348	53.7189000971068	-0.448478663559673	142.747333147848	-0.441850627587753	142.880733973085	-28.850441595587	65.7197686266704	
2130000000	-28.4838088866255	45.8655410705645	-0.449248414208805	138.253257849985	-0.443283523896681	138.388222256781	-27.9682392453521	62.6255079570154	
2132500000	-27.736005185291	38.6306517530705	-0.451892922240358	133.760972533628	-0.445228927374201	133.898508516394	-27.2200676947091	59.4219943639184	
2135000000	-27.0533067499537	31.8469616433834	-0.455753346008366	129.280912421349	-0.446428367439528	129.411883092944	-26.5632847074775	55.9657805998145	
2137500000	-26.4714937977843	25.2431746958316	-0.456664100325697	124.793480151432	-0.449674093837042	124.927024549319	-25.9923776381678	52.4251053895276	
2140000000	-25.9548025224643	18.834456391819	-0.45957237746508	120.307872515407	-0.451223928289838	120.441591527139	-25.4960011473976	48.7215959394852	
2142500000	-25.5037317632087	12.5812206330024	-0.461497132020637	115.821017409317	-0.453834501552907	115.958307835026	-25.069383234612	44.8816520866696	
2145000000	-25.0859567122063	6.53664117525142	-0.463458257354128	111.336993600968	-0.455245199863845	111.481937343208	-24.7035191070368	40.8900365064476	
2147500000	-24.7416330790271	0.601079378799385	-0.465602034176648	106.860250332418	-0.457379178778769	107.007928108477	-24.398155277146	36.8952461114757	
2150000000	-24.4424374647214	-5.19923272864045	-0.467395802591355	102.39035597777	-0.459452688683011	102.533750670762	-24.1510152071071	32.8427110674512	
2152500000	-24.188476486638	-11.0189441374534	-0.469335393069697	97.9097505146075	-0.460577655773493	98.0578655576218	-23.9459309563091	28.8098303986742	
2155000000	-23.9830075490093	-16.7697288717642	-0.470407663338289	93.4387152323394	-0.462502489078886	93.5848507167464	-23.7964916164212	24.7552019672635	
2157500000	-23.8246754682867	-22.3732384809487	-0.470722001878292	88.9630697102837	-0.462729322687656	89.108087420865	-23.681866298176	20.6499053994398	
2160000000	-23.7044657759411	-28.077248197368	-0.470844986494493	84.4809381290312	-0.463966286006218	84.6265153277543	-23.6090714060167	16.5300209250749	
2162500000	-23.6148091111711	-33.6609017421504	-0.471549027655898	80.0073987968109	-0.463834470749577	80.1529157949866	-23.5814029578807	12.4115176873067	
2165000000	-23.5806067940275	-39.2245435632888	-0.471833511478455	75.5315605374096	-0.464553494464557	75.6769152698061	-23.5917953787945	8.23497889297411	
2167500000	-23.5563756929994	-44.7635721264254	-0.471874033844044	71.0534413901033	-0.463672866487211	71.201839506451	-23.6601160182094	4.1141140131756	
2170000000	-23.5890820906988	-50.2333064906093	-0.472270311529095	66.575253461944	-0.463398336247989	66.7213442781442	-23.7473009028116	-0.00507113950015702	
2172500000	-23.6594961876458	-55.695638445137	-0.472652154944648	62.0957665246137	-0.463779820497038	62.2443666690175	-23.8806859765645	-4.1868440490208	
2175000000	-23.7798695743237	-61.1919154542543	-0.471127118012949	57.6162079348089	-0.462621384123282	57.7665460426653	-24.0432739331035	-8.36664446304069	
2177500000	-23.9269804155352	-66.6602708570224	-0.471220792189899	53.1338631920419	-0.462479339702112	53.2857356745404	-24.2640425549358	-12.5380248163533	
2180000000	-24.1240039851164	-72.0385600065445	-0.470761014623098	48.6506866890071	-0.461524379060725	48.8073409200146	-24.5336475369173	-16.6362088209844	
2182500000	-24.365524910792	-77.5087746293791	-0.469574283422044	44.1662831196594	-0.460617232149887	44.319565420123	-24.8523006308272	-20.6648041038532	
2185000000	-24.6587820803729	-82.9858907146422	-0.468886996397432	39.6830881091268	-0.46070153475845	39.8331442776697	-25.2211794825736	-24.5707739382986	
2187500000	-24.9926825870752	-88.5794991504599	-0.467592755496369	35.1951309504269	-0.457357913959706	35.3486186201978	-25.6287942352163	-28.4851828106833	
2190000000	-25.3951464603609	-94.1111956476399	-0.466082446334704	30.7072433873819	-0.456266198751098	30.8573835501728	-26.0948847477657	-32.2361392085072	
2192500000	-25.8545634020033	-99.7269809539274	-0.463709609539961	26.2214515407799	-0.454324095589484	26.372478585893	-26.6265769196321	-35.9477184625012	
2195000000	-26.3812812668963	-105.428833747878	-0.462997219512194	21.7346870164588	-0.452541446586466	21.8903129739468	-27.2542812920108	-39.4877858107147	
2197500000	-26.9985510644081	-111.115757328352	-0.461426753009723	17.2445867179789	-0.451774023450565	17.4039861420445	-27.9645798846657	-42.8476734566744	
2200000000	-27.7002888767567	-117.038745375736	-0.460432461666605	12.7516713725864	-0.450708213445363	12.9131992946956	-28.7800782802089	-45.9738098216161	
2202500000	-28.5167511049489	-123.253427383261	-0.460138351217252	8.26987866590009	-0.450126239064945	8.43032757912384	-29.7238584395303	-48.8203172774672	
2205000000	-29.4571433119596	-129.935489224484	-0.460778330560302	3.77614070327921	-0.449055205522468	3.92925167203369	-30.7711497310295	-50.9902718984055	
2207500000	-30.5743967054756	-137.325103114853	-0.45952044728559	-0.716824032376913	-0.449278964895478	-0.559244256619727	-32.0084696827877	-52.4092542496825	
2210000000	-31.8848690053841	-145.473811315001	-0.458873813890113	-5.20753618431376	-0.449516479227217	-5.05065865028859	-33.4567736503428	-52.727980498234	
2212500000	-33.3912592970854	-155.005498656767	-0.459494557841587	-9.70587289824996	-0.449946009460264	-9.55099636957419	-35.1654493526406	-50.9364172946145	
2215000000	-35.1853759358942	-166.728378624247	-0.460066352706394	-14.2069269167945	-0.449842790580853	-14.0442807218478	-37.1558212226848	-45.3440485805536	
2217500000	-37.2665731891612	177.515165295033	-0.45973586431759	-18.7059070285095	-0.449468842668683	-18.5429199845823	-39.1181768705484	-33.7382331914323	
2220000000	-39.2362716153403	154.304890120801	-0.460965506152651	-23.2032759358206	-0.450075293732237	-23.0440886597039	-40.3472415557547	-14.4450897309405	
2222500000	-40.1263207985517	122.50518161099	-0.460021142356694	-27.6980164244891	-0.450574342931828	-27.5389185395917	-39.8332310216288	7.66758946009796	
2225000000	-39.0690743485091	91.4148832936562	-0.461019573346823	-32.196270481835	-0.451882521659047	-32.02849703138	-38.0240509109035	23.3568572825947	
2227500000	-36.9712675560412	68.6694016719872	-0.462381941601083	-36.6877199461449	-0.453299704599827	-36.5318353808493	-35.9981793634184	31.2735916607699	
2230000000	-34.8481132980389	53.1580445024757	-0.462422856118687	-41.1827707746776	-0.454664733715519	-41.0228691496849	-34.1322592840477	34.8264386706973	
2232500000	-33.0227471161668	41.5322011955881	-0.464547655611388	-45.676959903823	-0.456584236183148	-45.5221244913435	-32.554536684544	35.377472828727	
2235000000	-31.4753488916259	32.8583095340925	-0.466960524290959	-50.1719652593172	-0.458204502000006	-50.0191446692723	-31.1590626655493	34.4597458888755	
2237500000	-30.1324267880203	25.0512100291505	-0.468802733345701	-54.658674117185	-0.459646219811312	-54.50789505402	-29.9616333399934	32.8351660456199	
2240000000	-28.995858333449	18.3618144535461	-0.470133410128072	-59.1468820896949	-0.460708760852658	-59.0036870636875	-28.9558856946377	30.3543329832402	
2242500000	-28.0180232918466	12.0282918743764	-0.47111147724027	-63.6413206785847	-0.462287442934338	-63.4876431448794	-28.0799125082285	27.3760572575656	
2245000000	-27.202885831836	6.36001933447974	-0.472979735227149	-68.1236335987589	-0.463979201624607	-67.9711666897681	-27.2910853300593	24.1193262430232	
2247500000	-26.4532966791587	0.824353135021912	-0.474450248904219	-72.6094130549859	-0.466182080246864	-72.4572615203502	-26.6168291002501	20.4763565076631	
2250000000	-25.8051340506155	-4.38248818523896	-0.475955174870028	-77.0930421214669	-0.467364762820761	-76.9369639765707	-26.0410473455829	16.764991922619	
2252500000	-25.2532106017909	-9.41812036628805	-0.476502970456779	-81.5815129953835	-0.468796550218446	-81.4200109301599	-25.4998233850139	12.9737059277484	
2255000000	-24.762223445543	-14.3357805215479	-0.479588929393372	-86.0613972491146	-0.46926257078435	-85.8978024665688	-25.0295196027366	9.09718888920873	
2257500000	-24.3457214886759	-19.0377892061321	-0.4803965847932	-90.5323604030901	-0.470857369366468	-90.382212071776	-24.6273640742163	5.04596675109401	
2260000000	-23.9844409246817	-23.6117898615943	-0.479985627900852	-95.0101701255815	-0.472881368257694	-94.8676638447817	-24.2967051957842	0.966484527340533	
2262500000	-23.6726582695262	-28.0662337153054	-0.480921210378134	-99.4839213849397	-0.473459206585847	-99.3424352725405	-24.0216696893714	-3.21055138348485	
2265000000	-23.4258472720987	-32.431944740812	-0.482997882426559	-103.967992676241	-0.473802260359414	-103.820559521854	-23.7706929125788	-7.45326511226552	
2267500000	-23.2370926928909	-36.7736437544701	-0.482864233118265	-108.44387020874	-0.475680473252994	-108.294156373668	-23.5863305273159	-11.6951747042436	
2270000000	-23.0875327143096	-40.9458037054812	-0.483129891666624	-112.9203705217	-0.475558882152042	-112.763891727453	-23.4506013231883	-15.9805434293587	
2272500000	-23.0017059978111	-45.1029249886996	-0.482980648820035	-117.402840952144	-0.476869947089466	-117.246328293969	-23.3453412809519	-20.3229062060168	
2275000000	-22.9498508380077	-49.1645493016075	-0.482903411747326	-121.878523284065	-0.477502365752611	-121.723964311251	-23.2979424154793	-24.6432413730914	
2277500000	-22.9479636917688	-53.1339972554283	-0.482888952603763	-126.358902792181	-0.476748435821853	-126.203771771738	-23.2925054398122	-29.0782724639606	
2280000000	-23.0028384191807	-56.9816539908976	-0.482202961171361	-130.837770875891	-0.476820784368662	-130.684592051262	-23.339788376328	-33.4985664259677	
2282500000	-23.0951637063723	-60.7365151342208	-0.481680484420181	-135.31899983407	-0.474561439132567	-135.162476603016	-23.4198160366753	-37.9135155211888	
2285000000	-23.2408021960683	-64.3395308669548	-0.480524249874613	-139.804888878831	-0.474984472444506	-139.643310359482	-23.5620441949598	-42.3730011995537	
2287500000	-23.4469629484922	-67.8745540118145	-0.479272544435848	-144.282590834171	-0.473367324697296	-144.122392466062	-23.7507908066218	-46.8837953575428	
2290000000	-23.7024669171251	-71.2973462125178	-0.479158772416637	-148.767144781872	-0.472333613037218	-148.604604498356	-23.9952427333499	-51.418006085522	
2292500000	-24.0368388431736	-74.5484556047369	-0.477985605244507	-153.24686616653	-0.471318589835673	-153.084029400064	-24.3033087224673	-56.0524194573071	
2295000000	-24.4310824266463	-77.5409788035717	-0.476884365794227	-157.724069706919	-0.470580593653961	-157.563685564338	-24.700015443112	-60.6592614858119	
2297500000	-24.8836936443643	-80.3098890275449	-0.475375849861687	-162.209187630134	-0.469055220152117	-162.048146457834	-25.1535498932427	-65.3322520790715	
2300000000	-25.4230076180741	-82.7857177145656	-0.474943054883667	-166.689049458432	-0.468424887718341	-166.52405067622	-25.6912855150855	-70.0806140294993	
2302500000	-26.0348770745515	-84.8401961100984	-0.47337276867547	-171.172255787786	-0.466999172033899	-171.01198261211	-26.3258854342181	-74.9307945456174	
2305000000	-26.7464513989716	-86.415482761744	-0.472526935728117	-175.655822180753	-0.4662845256406	-175.494852801916	-27.0790856259225	-79.8593486615373	
2307500000	-27.5470285881449	-87.2357584943017	-0.471911250769632	179.852649727139	-0.465050690900544	-179.983807359058	-27.9685555115384	-85.1272572706285	
2310000000	-28.4398691097476	-87.1582575997127	-0.470697421720932	175.361336705144	-0.463950521892816	175.519634785027	-29.0319307668878	-90.5580054447859	
2312500000	-29.4420301985496	-85.885450632044	-0.470862781186104	170.87225720956	-0.463296624372156	171.028070113727	-30.3086823785235	-96.3802578414561	
2315000000	-30.4938036090373	-82.8903584250628	-0.469455130787577	166.38102783852	-0.462222979893559	166.537607652381	-31.8872863344882	-102.732413584983	
2317500000	-31.5453939716466	-77.6750502146447	-0.469472222474578	161.884508059066	-0.462870037073732	162.044213047013	-33.8677825062485	-110.409046754227	
2320000000	-32.4367884682566	-69.8052836305205	-0.469657775204627	157.380656006909	-0.462457634643935	157.548658271687	-36.4772812628297	-120.575572416751	
2322500000	-32.9647802456468	-59.098890886026	-0.46954660858663	152.883002137542	-0.463378389198683	153.047435608639	-39.9785657580077	-136.885466688194	
2325000000	-32.8670032909063	-47.7369987175464	-0.4704688280107	148.394567707771	-0.463984435047364	148.547741882943	-44.2761092084911	-173.563146574392	
2327500000	-32.173064755242	-37.4146919433198	-0.471795117009074	143.890753603942	-0.464361223722371	144.047117577592	-43.6355581759926	126.348055140229	
2330000000	-31.1469388234674	-29.5162308489463	-0.472195382788881	139.389170191245	-0.465030474384634	139.546077385338	-39.176049558349	94.1936693624812	
2332500000	-29.9521292560647	-24.3361095815126	-0.474278725222052	134.89376311156	-0.466548167184807	135.05217777011	-35.6719133727219	79.0101954403277	
2335000000	-28.783134066587	-21.6642989310797	-0.475512866160048	130.402975613697	-0.468638075249489	130.553624918113	-33.035840526125	69.4001339012703	
2337500000	-27.6859690870756	-20.40960120822	-0.477980660387779	125.904830979438	-0.469921415649782	126.06100477344	-30.9935195571366	62.0833286729736	
2340000000	-26.6799658339184	-20.4438612750868	-0.480258046763757	121.416760252685	-0.472201194496766	121.566362664118	-29.3475098605367	55.722841467407	
2342500000	-25.7623162433801	-21.3224890039795	-0.483275590886125	116.924369232983	-0.47422441964502	117.074074865665	-27.9640511486534	50.1377422643923	
2345000000	-24.9344322821275	-22.7719207610026	-0.48495354981251	112.434441986108	-0.476686146166314	112.589742212361	-26.8321032113123	44.9251582944817	
2347500000	-24.2001231635316	-24.7691092599663	-0.486730120001465	107.948867786182	-0.478765813782453	108.099755693271	-25.8441621937615	39.9167528734691	
2350000000	-23.5561803290704	-27.1264979362545	-0.491158714962223	103.468717715969	-0.481782962246964	103.615137323397	-24.9770502085936	35.0455529592239	
2352500000	-22.9686479120426	-29.7252141005781	-0.493056194277843	98.9822869658326	-0.484087201618432	99.1318098487372	-24.2448632709322	30.348533554481	
2355000000	-22.468435308191	-32.5708888220312	-0.494929891918003	94.5056253726	-0.48818666524878	94.6545220490734	-23.5940514983329	25.7573544542225	
2357500000	-22.0269914580984	-35.557963458058	-0.498013800009208	90.0278225359938	-0.489961278154062	90.172803804099	-23.0244537847397	21.2281054682386	
2360000000	-21.6364874101389	-38.761463289788	-0.499836469988266	85.5504931453298	-0.493408181051928	85.6984145412598	-22.5425526881773	16.7880122210278	
2362500000	-21.3009288295819	-42.076757408224	-0.503007192896733	81.0785192744949	-0.495611672342159	81.2179093406456	-22.1167361365004	12.3554665303782	
2365000000	-21.0261137900125	-45.4303100590547	-0.505928282721752	76.6002324017872	-0.497215166301398	76.7437191284599	-21.7594194243383	8.00681897097047	
2367500000	-20.8010675476418	-48.8524203445484	-0.507817976396068	72.1282311559993	-0.499001122296624	72.2673159924367	-21.4547827861656	3.74439697250788	
2370000000	-20.6328866558655	-52.3740377177997	-0.510196975724345	67.6574421389362	-0.500307556177408	67.7886917837838	-21.2116654285777	-0.459173399246284	
2372500000	-20.508109404388	-56.0071080547344	-0.511128104347557	63.1837862970763	-0.501652876859213	63.3205609924542	-21.0259447906142	-4.60945382095704	
2375000000	-20.4406804568775	-59.716096084671	-0.51233860357412	58.7150639421411	-0.503022420373262	58.8474144683204	-20.8931915908935	-8.70611272458188	
2377500000	-20.4175793478654	-63.4106544824762	-0.512411360287717	54.241441009395	-0.503740283012232	54.3785850113	-20.8061124828788	-12.7515198544314	
2380000000	-20.4431828545456	-67.120173700652	-0.512611764449693	49.7705825336242	-0.503632157898347	49.9084955911515	-20.7693193999829	-16.691339157974	
2382500000	-20.5181311681229	-70.8650637283578	-0.512591784972096	45.3004468572161	-0.503685148300886	45.4339711739891	-20.7816140997848	-20.6157767889401	
2385000000	-20.6547476632363	-74.6428384823226	-0.511779467128179	40.8334144285344	-0.503420135180036	40.9616064488587	-20.8479381773703	-24.425952181197	
2387500000	-20.8491585239915	-78.4937491868469	-0.511464340585745	36.3606978674619	-0.503035529219767	36.4901848205477	-20.9704410761218	-28.1889899412471	
2390000000	-21.0953921319121	-82.3373193591036	-0.510119144980477	31.8966220503089	-0.501941641176618	32.0155115816605	-21.1499894965829	-31.8203765607925	
2392500000	-21.4098882547914	-86.2730579173599	-0.508642179787144	27.4213884921102	-0.500268118737937	27.5410308592188	-21.3781016317456	-35.3298896746975	
2395000000	-21.7857677968877	-90.1896974521134	-0.506578484385032	22.9434857062192	-0.498593688592193	23.0675288792365	-21.6749969154135	-38.6789573375676	
2397500000	-22.2437922553232	-94.1363461475143	-0.505683205784198	18.472551580132	-0.496804401697351	18.5902584616791	-22.0321414430599	-41.8597198304727	
2400000000	-22.7858474649239	-98.1353214455511	-0.502334062771544	13.9841970583513	-0.494849610837052	14.1106662997255	-22.4486198389034	-44.8312193053984	
2402500000	-23.4219434894939	-102.089432772078	-0.500738993396239	9.50996961248004	-0.492272271083228	9.62932103829222	-22.9523264614265	-47.5544736524217	
2405000000	-24.1762996086311	-106.138431189677	-0.498708542190612	5.02811130521142	-0.491033232809709	5.14088262650445	-23.5302069222658	-49.9308442503809	
2407500000	-25.0752923572772	-110.209731022257	-0.49644051584448	0.542398606406049	-0.488814176971682	0.657929190998979	-24.1997587362079	-51.8630055188867	
2410000000	-26.1416377277083	-114.368918269138	-0.493315063160375	-3.94541098679664	-0.487908442576332	-3.8375346746904	-24.9636530831614	-53.1447165185754	
2412500000	-27.4446849165567	-118.443148256395	-0.492469058366664	-8.44413755090828	-0.484969672277137	-8.33913235081112	-25.8227538547605	-53.6888435616389	
2415000000	-29.0501813044355	-122.610769652181	-0.4908579087647	-12.9484723730935	-0.483205043891921	-12.8350761014949	-26.7841417610153	-53.1005407643609	
2417500000	-31.0967424116527	-126.987044676403	-0.489262820075154	-17.4480266367489	-0.482505268973783	-17.3378033453961	-27.8370260072478	-50.9649990682304	
2420000000	-33.8903919829192	-131.534244997151	-0.489613196810718	-21.9562619890965	-0.480930001196874	-21.8415596629912	-28.9289274521837	-46.9336333096293	
2422500000	-38.2154818913382	-137.478276283047	-0.487688790417753	-26.4584432092928	-0.481288356372432	-26.3452722888922	-29.9069867033062	-40.2484881696228	
2425000000	-47.457061874515	-150.084331830454	-0.487645578878922	-30.9616968699974	-0.481470916161651	-30.85376050312	-30.6107026547184	-30.7628100564254	
2427500000	-47.676723372432	51.9894071444938	-0.48774615999432	-35.4664495907635	-0.481633385840965	-35.362345976028	-30.7805203228016	-19.6576274351537	
2430000000	-38.1775915695735	39.1200084691666	-0.487235726463836	-39.9766565028817	-0.483356834711872	-39.8596732154372	-30.3257176187671	-8.82349492475344	
2432500000	-33.7606125193016	33.1127390867281	-0.489877860438859	-44.4845280460924	-0.484305286279375	-44.3725651066477	-29.4046612504189	-0.153316364813107	
2435000000	-30.864180622101	28.3198704378995	-0.492371859892606	-48.9893352359095	-0.485478233414975	-48.8771721487658	-28.2747291488122	5.78783795106971	
2437500000	-28.7054169837132	23.8146289882911	-0.494925823985322	-53.4885315812762	-0.487485972724517	-53.3836237514188	-27.1023342476593	9.31251711276042	
2440000000	-27.01910277399	19.4504828046493	-0.498383281675754	-57.9886005117929	-0.48963470227299	-57.8843624312153	-25.9744967075664	10.9580829478437	
2442500000	-25.6288847955697	15.2583470079243	-0.500531938858959	-62.4862160094032	-0.49248096103991	-62.3820710144149	-24.9391219235828	11.2234111865662	
2445000000	-24.4790796080266	11.083633641357	-0.503314563137047	-66.9806371491205	-0.496458815877724	-66.876565903114	-24.0075278833711	10.4949945748657	
2447500000	-23.4981458556303	6.97598627769025	-0.506653125661327	-71.4772983567679	-0.500569330592534	-71.3671419750075	-23.180297003026	8.99789497575627	
2450000000	-22.6596676457227	2.91694919622688	-0.510460212312177	-75.9601878071744	-0.503797711267735	-75.8517084324296	-22.4509375135979	7.11386831655635	
2452500000	-21.9368310058837	-1.10321429273008	-0.514067231089198	-80.444017202603	-0.50781786561668	-80.3353430774025	-21.8020876915761	4.75107470693476	
2455000000	-21.3159952581837	-5.14255699184844	-0.518115862815488	-84.9206886809235	-0.511758777383742	-84.8168193744096	-21.2374716353113	2.07038469716358	
2457500000	-20.7843062421842	-9.21006601064207	-0.52258295711297	-89.4000741357988	-0.515805715468727	-89.2928807489438	-20.7382993718892	-0.868376106416778	
2460000000	-20.330889496789	-13.237073345246	-0.525996442606775	-93.8755990076884	-0.519367959085108	-93.7782052618302	-20.3130598217306	-3.95812958976719	
2462500000	-19.9495957048846	-17.2939547893142	-0.529161887059385	-98.3473522191927	-0.523384947031816	-98.2478457091009	-19.9508233372464	-7.16050685295485	
2465000000	-19.6338735070991	-21.2872109876574	-0.533149937981669	-102.820165543437	-0.525950661019592	-102.713369316623	-19.6491594683677	-10.5379492264119	
2467500000	-19.3719153838299	-25.2913915276115	-0.536422886823265	-107.28684528461	-0.529617923401078	-107.183625182381	-19.3966494404724	-13.9512483485437	
2470000000	-19.1693811731974	-29.2674228943975	-0.539065472447372	-111.753038088655	-0.531432268851941	-111.640294326473	-19.2058820854079	-17.4783147264636	
2472500000	-19.0291812796784	-33.2514105293241	-0.541742063518621	-116.222988955161	-0.533775581388968	-116.105337531105	-19.058758112856	-21.0669104952237	
2475000000	-18.9364012810604	-37.1793546468415	-0.542483185165225	-120.684455365954	-0.535889402213123	-120.573894433042	-18.9705985408436	-24.6841213910514	
2477500000	-18.9027868079312	-41.1102642305148	-0.543343682004481	-125.147858712613	-0.53734670418794	-125.036995034826	-18.9340529716818	-28.3495899337877	
2480000000	-18.9150644174571	-45.011928542766	-0.544382904435161	-129.610221626272	-0.538518199389863	-129.499801033887	-18.950058183363	-32.0584743359298	
2482500000	-18.9907447126551	-48.8893450083039	-0.54469868265877	-134.069390887237	-0.53701127930284	-133.963324865052	-19.021833731575	-35.7349441178643	
2485000000	-19.1197024599893	-52.7446740955095	-0.542751895039287	-138.532805012708	-0.536107439540615	-138.4248441363	-19.144626418176	-39.4722755396188	
2487500000	-19.3043789149017	-56.5669736820804	-0.541575823209699	-142.996679250894	-0.534434403684856	-142.891734804065	-19.3233341530327	-43.1632013893438	
2490000000	-19.552926185177	-60.3288613096237	-0.539368414028736	-147.463246024303	-0.532037922920782	-147.353346150153	-19.5604363200125	-46.8716299768728	
2492500000	-19.8586460186565	-64.043519365133	-0.537202324095938	-151.925726922852	-0.528808867210989	-151.821926682175	-19.8613058800625	-50.5531359216748	
2495000000	-20.2311440992864	-67.6938352790199	-0.534640705743909	-156.399174504543	-0.527151370366636	-156.290159045534	-20.2332554518734	-54.2367648683682	
2497500000	-20.68608829064	-71.2519808794975	-0.531582815400501	-160.871227183235	-0.524887201715753	-160.763470123282	-20.6836435568178	-57.8434789724878	
2500000000	-21.2239984900609	-74.6769324505862	-0.528373404311611	-165.342304597356	-0.521764703869331	-165.238271062221	-21.220404512939	-61.3540848049566	
