!Agilent N9923A: A.05.17
!Date: Sunday, 01 January 2006 12:58:40
!Model: N9923A
!Serial: MY50371189
!CHECKSUM:1397063130
!Correction: S11(ON Q)S21(ON Q)S12(ON Q)S22(ON Q)
!S2P File: Measurements:S11,S21,S12,S22:
# Hz S DB R 50
500000000	-26.8215338161169	-23.5057254948518	-1.25475554001978	48.6530262634659	-1.24410949145744	48.5806592032107	-25.4484024216407	-32.1443506564894	
502500000	-30.5418695721616	-24.1551641864382	-1.25440681160811	38.0831035612817	-1.24345227660261	38.0137266466998	-28.779929407349	-36.0263513450167	
505000000	-35.8459996638152	-6.12220954518783	-1.2565531782454	27.5034439267922	-1.24586876006393	27.4370377088551	-33.9915471661472	-29.6464797675114	
507500000	-36.464645200114	49.2249454203411	-1.2613889060534	16.9260916035494	-1.25050541865361	16.8611256742715	-38.9548298243548	23.3119519837597	
510000000	-31.4596664485013	70.504133850743	-1.26845111899174	6.35308642337777	-1.25808812270098	6.2923928614049	-33.3107684818238	65.2470363119016	
512500000	-27.9638704345783	70.848310787037	-1.27770294763455	-4.21075977054566	-1.26712490052148	-4.27011005701961	-28.8784494835962	68.6492724756486	
515000000	-25.6924530536905	65.6212936864192	-1.28764327468054	-14.7606496667404	-1.27761118583957	-14.8212217427325	-26.1499510849095	63.8166681310802	
517500000	-24.1857889113627	58.4337666911303	-1.29802487634212	-25.2968907701435	-1.2881838831687	-25.3550607793944	-24.3754635389617	56.5480982655768	
520000000	-23.2225572896137	50.3751828545904	-1.30773477551286	-35.8154134400157	-1.29839568158578	-35.8762935799489	-23.2254356688794	48.1831465789089	
522500000	-22.6865380826992	41.9674151015221	-1.31630648557252	-46.3276464225737	-1.30621648165522	-46.3859495030514	-22.5454422911032	39.2339051540898	
525000000	-22.5365793597211	33.4707281786011	-1.32286213521365	-56.8317539222826	-1.31305630034646	-56.886335636196	-22.267934071861	29.9724819570073	
527500000	-22.7360669419837	25.0770326790138	-1.32754537204306	-67.3357463213821	-1.31762097893218	-67.3891949862645	-22.3591874800412	20.5006533285035	
530000000	-23.2958049066651	17.0024029309628	-1.32983628139723	-77.8449153455686	-1.32007964234859	-77.8956709934909	-22.8326418445298	10.8621380780645	
532500000	-24.2679791511346	9.63482863747217	-1.3308487205271	-88.3610685974679	-1.32115926973213	-88.4129526016737	-23.7208430999963	1.10338364030915	
535000000	-25.7537569551324	3.57730907595681	-1.33112978915124	-98.8922844546479	-1.32091352881226	-98.9398764176859	-25.1519476268668	-8.77505246309785	
537500000	-27.9119797615731	0.354943738564389	-1.33098969986252	-109.433638711615	-1.32129183547008	-109.482480684944	-27.3387135506571	-18.6793694729923	
540000000	-30.9329397558556	4.11730885149806	-1.33187087866173	-119.988217513018	-1.32265577913697	-120.039237463628	-30.8579677515203	-28.7585310848287	
542500000	-34.112342257578	25.4565127874979	-1.33483466908898	-130.552305275642	-1.32522021720644	-130.601692734245	-37.8543007711688	-39.2576436719447	
545000000	-33.4157518118797	61.6100216792233	-1.33959790515071	-141.12170868891	-1.33037049158696	-141.173219225315	-47.8748421211614	134.924599712977	
547500000	-29.7722047070939	77.8363443758709	-1.34715562838843	-151.691961896971	-1.33776201922701	-151.740332810685	-33.4863052082467	122.39090668191	
550000000	-26.6793698897341	79.3188912784925	-1.35705464598678	-162.25017282941	-1.3477453155397	-162.298133202199	-28.3979678854814	112.179198134491	
552500000	-24.4168209290971	75.1237720664608	-1.36872436870546	-172.796036618598	-1.35940400002676	-172.847789670736	-25.3551174055179	102.146274873562	
555000000	-22.7586375252276	68.478316676173	-1.38154366730269	176.670914430347	-1.37290354292865	176.621727554651	-23.28001245859	92.1794368902909	
557500000	-21.5478384509031	60.6473911185442	-1.39495232914661	166.157823853031	-1.38585740396215	166.107699923842	-21.8163428330579	82.2969849350882	
560000000	-20.6998788665701	52.1279950488147	-1.40747600746518	155.66311883266	-1.39799638972079	155.613087798482	-20.7821921562779	72.5328787414374	
562500000	-20.1548113053987	43.1820799435104	-1.41839759179949	145.181812725787	-1.40890487015262	145.13111310748	-20.0886104242713	62.8119828299743	
565000000	-19.8812681966344	33.9692016976631	-1.42702307042931	134.71210131841	-1.4172638791263	134.663847034835	-19.6926285262287	53.2238149603505	
567500000	-19.8679522398494	24.5947119869508	-1.43239064414993	124.249394016857	-1.42284044617159	124.202033542675	-19.5690539955518	43.7438607665037	
570000000	-20.1142015220601	15.0949985001561	-1.43449811739745	113.782123234639	-1.42513290477775	113.736266678593	-19.6996786223207	34.4659664146491	
572500000	-20.6402142024499	5.53086301530181	-1.43402280353863	103.310264402218	-1.42447909111001	103.262061511562	-20.1001754680491	25.4062654339191	
575000000	-21.4768388414575	-4.07658150731243	-1.43123521444782	92.8215239763011	-1.42120199602682	92.7787704169016	-20.7944745507849	16.682117106302	
577500000	-22.6907487999879	-13.6882813862739	-1.42672697486686	82.3169226667046	-1.41734135353034	82.2739700552625	-21.8144718401464	8.50688599469546	
580000000	-24.4049738331196	-23.1354294320319	-1.42205876726629	71.790965196583	-1.41295801657033	71.7503994144752	-23.2402035505566	1.24507503889304	
582500000	-26.8550254809122	-32.365282547985	-1.41803629586874	61.248000767876	-1.40855592550885	61.2059596830365	-25.2047267912734	-4.29216807572497	
585000000	-30.6377181372768	-40.7003822467309	-1.41496296688583	50.6862928717407	-1.40576051898779	50.6487821294522	-27.9075707675153	-5.98493949578568	
587500000	-37.8465040595071	-45.115898299113	-1.41459978985665	40.1167897619807	-1.40524456845562	40.0781752697065	-31.4844212584344	1.80003986665155	
590000000	-46.5922778495574	86.9521530491447	-1.41673729727629	29.544282762281	-1.40791523285036	29.5050381639561	-34.2794421388327	31.9956956423598	
592500000	-33.8085268617312	99.0533755867776	-1.42158154768125	18.9739323093446	-1.41260100621976	18.9361753175605	-32.1440859154154	64.757891138319	
595000000	-29.0232727698609	91.8401080786981	-1.4283147687567	8.41114533556351	-1.41969035627739	8.3733306396857	-28.7010063482823	74.5431610646467	
597500000	-26.2361914907572	83.0217168395982	-1.43668059449652	-2.1350850979488	-1.42801928060408	-2.17030789092007	-26.1332939190192	73.5478809172188	
600000000	-24.4363008473708	73.7961073896771	-1.44569009832308	-12.6656221181878	-1.43741937640402	-12.6983453124077	-24.3430271284206	68.4300691291384	
602500000	-23.2526339910999	64.4728643214248	-1.45484824792812	-23.1815382967355	-1.44638396449383	-23.2153484322395	-23.1330895573008	61.4520439691562	
605000000	-22.5355150937014	55.1848894911106	-1.46254440068633	-33.6858135456136	-1.45428987831069	-33.719195728666	-22.3727297088348	53.5822798916147	
607500000	-22.2067283434758	46.0562845087907	-1.46828349460515	-44.1818784748411	-1.46043889174238	-44.2137823833359	-22.0062432829694	45.1359517331598	
610000000	-22.2432943615852	37.1389873060279	-1.47180695469323	-54.6775009262321	-1.46372347214741	-54.7051177214924	-21.9904699507715	36.4396713212835	
612500000	-22.6436833738312	28.6395572077125	-1.47280727531322	-65.1765711502879	-1.46486492706419	-65.2018709599784	-22.3507139412428	27.6135400693016	
615000000	-23.4477568395174	20.8187238705328	-1.47190650977661	-75.6853165312134	-1.46380888776781	-75.7095984401136	-23.1200181124021	18.8448279496189	
617500000	-24.7367136443227	14.1751249276479	-1.46988844747011	-86.2123523112097	-1.46188913733417	-86.234830384318	-24.4083872205201	10.2701797876059	
620000000	-26.6824040711192	9.85642274370166	-1.46699669884919	-96.7559037705208	-1.45959628239811	-96.774674445821	-26.4192119100732	2.36472751093432	
622500000	-29.5297887620718	11.236147550255	-1.4651289923917	-107.319206440566	-1.45740764379783	-107.337954184517	-29.6680051342283	-3.6163516324607	
625000000	-33.0581849341044	28.4103308660329	-1.46557907832622	-117.89604391238	-1.45761919511311	-117.918682637007	-35.7221044804146	-0.909092379408087	
627500000	-33.305204313684	67.7425065974522	-1.46818682698768	-128.487193719347	-1.46103252265261	-128.50870826961	-42.2091077235817	84.8875022401971	
630000000	-29.4099119808675	89.0992186501742	-1.47499373402002	-139.081752004244	-1.46685038515976	-139.103903552829	-32.2251411354755	119.197956020629	
632500000	-25.9098290137305	92.0692174023107	-1.48462395640311	-149.669081571039	-1.47651603843176	-149.693813916408	-27.119679008459	116.400290843596	
635000000	-23.3216565026272	88.3801413757471	-1.49754435567192	-160.245602269621	-1.4893837219475	-160.270072218271	-23.9530232820903	109.160979658183	
637500000	-21.3935145472359	82.0900690859879	-1.51360008244412	-170.801417263005	-1.5059630935438	-170.825666697555	-21.7375703899003	100.613803832223	
640000000	-19.9431240105917	74.4854341230974	-1.53157683813971	178.672228276975	-1.52394845162441	178.643292537959	-20.1181980420859	91.5349395955127	
642500000	-18.8623502026219	66.2005977400146	-1.54907471519466	168.17298435199	-1.54122594809008	168.143418495248	-18.9183724942028	82.1444555633752	
645000000	-18.0868723119591	57.5274474230345	-1.56477353135659	157.702433359167	-1.55703205839559	157.675346441848	-18.0558514392117	72.6395812702873	
647500000	-17.5680391298111	48.6582048862612	-1.57840639814186	147.262276799832	-1.57016875257771	147.228819412476	-17.4677727655101	63.0863822590924	
650000000	-17.2793845633775	39.7236623902447	-1.58810118924002	136.83842450468	-1.57995189413758	136.804594773094	-17.1244963677045	53.4609580938493	
652500000	-17.2171393011168	30.7568970244484	-1.59322116836898	126.421900107921	-1.58515543617774	126.391380197137	-17.0164388797248	43.8409331262171	
655000000	-17.3751646359539	21.8419628163266	-1.59313594257721	116.006399629711	-1.58528857236945	115.972346474544	-17.1348298819937	34.2076195562231	
657500000	-17.7700205963204	13.087633052274	-1.58877007972676	105.577111177979	-1.58048292147418	105.543098055999	-17.4958548139623	24.6092768404103	
660000000	-18.4188014698811	4.555815939647	-1.58022824145289	95.1273407438961	-1.57177638126842	95.0895052722808	-18.112326435513	15.0765100761075	
662500000	-19.3675467065604	-3.54870663815945	-1.56889888878325	84.6463836717383	-1.56065484088507	84.6108345518879	-19.0385657543197	5.61821021618904	
665000000	-20.6822889272568	-10.896602058642	-1.55648667383183	74.133590923323	-1.54833123078604	74.1003973286204	-20.3509144045288	-3.65598391301971	
667500000	-22.4726878106932	-16.8462681561132	-1.5443405577653	63.5895299261772	-1.53611262593917	63.5494068365274	-22.1864043410729	-12.5423400721929	
670000000	-24.9289362816779	-19.7657397577454	-1.53421631623745	53.0103822353893	-1.5254780918519	52.9711459024624	-24.8343065478073	-20.4785186479178	
672500000	-28.2388006397404	-15.3787382460174	-1.5269918917844	42.4117386706034	-1.51874144559732	42.3704329169279	-28.9770671169009	-25.7092056780385	
675000000	-31.5904069417619	8.05231618496167	-1.52468674503753	31.7938284376935	-1.5164816354842	31.7514294804087	-37.009354537249	-15.2156750422822	
677500000	-30.6440479249057	44.4269201028414	-1.52678481351813	21.1719514555447	-1.51891599538146	21.1300920607348	-37.3454943104406	87.406292011923	
680000000	-27.0932895001107	59.2454677764027	-1.53353017963391	10.5585862931391	-1.52559266982587	10.5150734054402	-29.2386103785932	98.9737836784608	
682500000	-24.2084951241539	60.2070589556893	-1.54439894152813	-0.0389500211324607	-1.53652513082283	-0.0854697832923622	-25.1495233529039	93.9096568520098	
685000000	-22.1305785743536	55.9299593723049	-1.55793044868546	-10.6113600295636	-1.55013740229859	-10.6556743075086	-22.57666206467	85.9948303054389	
687500000	-20.6378439084522	49.4593110716837	-1.57328802988716	-21.1556826142483	-1.56504907546505	-21.2016525301221	-20.8353179363843	77.2555655172707	
690000000	-19.5914924106308	41.8388013546471	-1.5875876880141	-31.6690719519754	-1.57957932357123	-31.7165773332959	-19.6302091312588	68.1264886128857	
692500000	-18.9030655862726	33.627241547432	-1.6006048989332	-42.1569134386991	-1.59207989206034	-42.2054704859696	-18.8252490870028	58.8617908594519	
695000000	-18.5194105214216	25.1258556275722	-1.60980164468321	-52.6218839748026	-1.60146838933593	-52.6730376588277	-18.3526859206852	49.5516789097192	
697500000	-18.406770694282	16.4458533252468	-1.61523867259622	-63.0741482685511	-1.60680779851746	-63.127193502735	-18.1649773723337	40.2512659452777	
700000000	-18.5638963311216	7.74181648473858	-1.61648778856592	-73.5262831012302	-1.60824142935556	-73.579425165486	-18.2522349654224	30.9916026372449	
702500000	-19.0011710954905	-0.855344057662023	-1.61380344093988	-83.9862930412551	-1.60554962492611	-84.0400661891537	-18.6175516026493	21.8680336328905	
705000000	-19.7330245334254	-9.18290610682074	-1.608251940036	-94.4669944572734	-1.60016898889132	-94.5193568934031	-19.2818403503045	12.9505554062749	
707500000	-20.8190988676515	-17.0602078042844	-1.60026270307454	-104.970765086797	-1.59191498466054	-105.022624240356	-20.2917871002787	4.40493040967217	
710000000	-22.3569883721471	-24.0087105695895	-1.59135763665353	-115.502760943441	-1.58286420248867	-115.558389948854	-21.7342934123559	-3.530949678983	
712500000	-24.491544159984	-29.0720213677677	-1.5825914795413	-126.064531318453	-1.57474062169412	-126.117316505661	-23.771361584602	-10.2140645602947	
715000000	-27.4893029924219	-29.5344286680138	-1.57708204594181	-136.650499651782	-1.56847931549725	-136.70402004802	-26.7110200597301	-13.9113432907765	
717500000	-31.4727073543335	-17.0296048966903	-1.57387338296929	-147.252281076025	-1.56483213491107	-147.302903774199	-31.1573156296573	-8.42343116281562	
720000000	-33.273662652206	22.2731307604023	-1.57495430660754	-157.862324306316	-1.56605349265423	-157.912201159985	-35.7889488256737	31.6112964228892	
722500000	-29.7660848490192	49.9458284938779	-1.57989853833595	-168.476534110042	-1.57120389814155	-168.522585836478	-31.83539461513	77.0232349097336	
725000000	-26.2536796724726	55.0111446775083	-1.58858767549915	-179.075652226116	-1.5791137020545	-179.12254845763	-27.3019781583407	84.5976453377288	
727500000	-23.7675751066434	51.9157252919236	-1.59979439025044	170.339246516309	-1.59081158604004	170.29742322179	-24.3319703810298	81.5015599120263	
730000000	-22.0110708302606	45.7152345059403	-1.6127426767396	159.775216447015	-1.60260456372043	159.739421153846	-22.3102297405981	75.2620120030334	
732500000	-20.783824256912	38.1245086728735	-1.62545467233677	149.24390528809	-1.61601552261425	149.200915382039	-20.9054355377489	67.7059769509052	
735000000	-19.9609611157398	29.8143390903403	-1.6373131074792	138.729956009978	-1.62757393252401	138.693268657531	-19.9581291863528	59.5259664232219	
737500000	-19.4742999148951	21.0540475917875	-1.64665457192062	128.23539372437	-1.6371542772608	128.199049637561	-19.36692366263	51.0831427453087	
740000000	-19.2893021879874	12.0780566958005	-1.65259276156523	117.755029634178	-1.64332814402688	117.720211398627	-19.0831836429346	42.5177649713029	
742500000	-19.3814078168113	2.94390522301225	-1.65576327159013	107.273830431736	-1.645666952574	107.241924361549	-19.081079017114	33.9558222978336	
745000000	-19.7596495984473	-6.20186886285502	-1.65525909609698	96.7900595176888	-1.64512933014599	96.7624463981065	-19.364180283808	25.5147866343662	
747500000	-20.4393178060983	-15.2564793812011	-1.65175062957431	86.2956188930114	-1.64192890675156	86.271665859357	-19.9398124943627	17.3113262586241	
750000000	-21.4794774582628	-24.1165552953227	-1.64662398865464	75.78431107395	-1.63676108377957	75.760566422927	-20.8435379457005	9.5083689057805	
752500000	-22.9722993051584	-32.5454576267494	-1.6403018076594	65.2500694548337	-1.63051491169735	65.2305191440976	-22.1359076795665	2.43381447371029	
755000000	-25.0641115248808	-39.9581194405692	-1.63485106994393	54.6940607764106	-1.62480143467788	54.677626098864	-23.9222637271998	-3.26968948636393	
757500000	-28.0759355464107	-45.006712014795	-1.63027997168414	44.1130277356284	-1.62049536117768	44.1041191102582	-26.3894933742223	-6.1619594302564	
760000000	-32.7327938539907	-42.2152446397767	-1.62842933716709	33.5198187733257	-1.61893907010333	33.5130092929734	-29.7621957102475	-2.17002566947148	
762500000	-38.643337904932	-3.53444030880317	-1.62968308353427	22.9227796176094	-1.62011183101828	22.9164791866159	-33.4661330613832	20.322638606027	
765000000	-34.5424539884685	49.8825287209001	-1.63397834514408	12.3218672528107	-1.62452404702967	12.3188345042704	-33.0462511349582	59.6038017594613	
767500000	-29.7101425558893	56.8180646331794	-1.6404618270221	1.72775184788251	-1.6317206889653	1.72862693278132	-29.5216585009676	77.2553640302551	
770000000	-26.7586794615147	52.526224645668	-1.64921678490614	-8.85143221875233	-1.63975362176442	-8.8490080697508	-26.7060561406312	79.7949552886552	
772500000	-24.8959068342244	45.0158184202621	-1.65853054580521	-19.4189003672839	-1.64938408071168	-19.412692812535	-24.7685512372687	76.9444876320548	
775000000	-23.7426808185745	36.1234246447286	-1.66780783341537	-29.9691824336387	-1.65878459397241	-29.9631718296263	-23.4782586064445	72.0962125637719	
777500000	-23.1264028434425	26.4268696611609	-1.67567558245379	-40.5090666875359	-1.66672322710202	-40.5026935850829	-22.694160200323	66.4349001653926	
780000000	-22.9918130201449	16.0672098386998	-1.68169362162943	-51.0456458505784	-1.67329447983124	-51.0389127860124	-22.3433510024676	60.7823698711431	
782500000	-23.3218478069169	5.05294727064692	-1.68582072792273	-61.5805759506419	-1.67662099208306	-61.5760844982694	-22.3636435621547	55.6262257620645	
785000000	-24.1798143503225	-6.82202781462235	-1.687452291521	-72.1254149354902	-1.67872097224583	-72.1238578539048	-22.7470840611648	51.6609655430785	
787500000	-25.7193034108089	-20.1825705045655	-1.68915954072375	-82.685860143095	-1.67987132399575	-82.6839296986086	-23.4652281582066	49.6983741686337	
790000000	-28.2463990740677	-36.9199266573402	-1.69053101381092	-93.2634504132996	-1.68135491786025	-93.2639151594986	-24.4280955314476	51.1102345581792	
792500000	-32.3324067934718	-64.0741862170161	-1.69280137490364	-103.864129375624	-1.68389299194731	-103.865482576324	-25.3521556463393	57.6324872595936	
795000000	-36.032900898775	-129.016337335704	-1.69802363043461	-114.479954905662	-1.68918294157819	-114.485233990057	-25.6190797569466	69.1975144075014	
797500000	-31.0512279404591	170.04363936058	-1.70857343089682	-125.107435687721	-1.69987412736394	-125.116075283218	-24.7116366322989	81.3850332005445	
800000000	-26.2172070047839	144.290341420182	-1.72639159752782	-135.734326331966	-1.71670236755571	-135.744109966132	-22.9891387648584	88.8782037568375	
802500000	-22.9057217692318	127.62016924188	-1.74067371769921	-146.375264473527	-1.73145222729382	-146.387003392609	-21.0858034391996	90.7837424416186	
805000000	-20.5045568452744	114.166839141725	-1.76433957668939	-156.975419080052	-1.75692556613936	-156.984251597523	-19.3763844227609	88.9769027548079	
807500000	-18.6903706525542	102.04520856125	-1.79558514730733	-167.529773053677	-1.78564783375724	-167.546575267695	-17.9256249540134	84.6439107269953	
810000000	-17.3148125070758	90.6150205678185	-1.82455081081113	-178.072717351785	-1.81519459346465	-178.079219438713	-16.7478208905061	78.7979096368355	
812500000	-16.2597134746567	79.7017829851589	-1.85700743214502	171.473624595333	-1.84735445743944	171.457764151653	-15.8168586036467	72.0603118767546	
815000000	-15.4738615892429	69.1004455230781	-1.88665158895625	161.042125540794	-1.87394772733536	161.026859516673	-15.1090540553871	64.6814777194968	
817500000	-14.9455733617356	58.7094224343286	-1.9090064848425	150.661390700743	-1.90000195580041	150.646018909065	-14.6162749290973	56.8645863001784	
820000000	-14.6143734999256	48.5575599753795	-1.92661605431624	140.321080911814	-1.91801229017353	140.29286279217	-14.3147858553375	48.8113874111542	
822500000	-14.5058740268578	38.5633939264036	-1.93649347242181	129.974450386572	-1.92700986813968	129.953402713675	-14.2072131604804	40.5381543475534	
825000000	-14.5876113595666	28.7898652176291	-1.93831242628019	119.629222559205	-1.92660035687541	119.601441029059	-14.2942371541508	32.202153573121	
827500000	-14.8921583282696	19.1824677491722	-1.93084131379724	109.287386014346	-1.92155961276091	109.267965149855	-14.585304518359	23.8179902962968	
830000000	-15.4322341260116	9.79875220752703	-1.91815992491798	98.907783720562	-1.9073283901084	98.8929569708725	-15.1079614178441	15.4575121162396	
832500000	-16.2268813996332	0.735876541892021	-1.89676257466009	88.4784813052453	-1.88782220021132	88.4547418594837	-15.87876224963	7.29559253373102	
835000000	-17.3509089602017	-7.80654690646659	-1.87433827522487	77.9978806642061	-1.86588555489124	77.9737889253963	-16.969830236802	-0.59558522858848	
837500000	-18.8954612358334	-15.4710611675683	-1.85098165310741	67.4529439006311	-1.84270153718552	67.4361233834534	-18.4635165934179	-7.78306736861265	
840000000	-21.0098221420944	-21.4146233590981	-1.82837874818787	56.8467207476943	-1.82105101185991	56.8251954205277	-20.5119973045026	-13.5427946552358	
842500000	-23.9936141618456	-23.4012510524351	-1.81696289702484	46.2256790000643	-1.80787815994802	46.199790649737	-23.3998288260907	-16.1393829641036	
845000000	-28.1178433506377	-13.7552404737583	-1.80961124496197	35.5464398216299	-1.80002125677468	35.5377187837669	-27.5268002627336	-9.13728622935501	
847500000	-30.811898729648	25.0026958464785	-1.80957402480058	24.8681886813836	-1.80120119704235	24.8457305577761	-31.2253057526089	27.4361783436737	
850000000	-27.3066456992859	57.5814891068493	-1.8209493386212	14.2142446612428	-1.8110536797403	14.1808164427777	-28.0748342686714	67.2016105680196	
852500000	-23.541897557559	63.6137016091863	-1.83711909143233	3.54232115283791	-1.82851511482069	3.51514524646378	-23.981306281557	75.798313068538	
855000000	-20.8999831268669	60.6947971180802	-1.85991469042088	-7.07035253810895	-1.85120332620706	-7.08961035988486	-21.1474704190839	73.7352744773407	
857500000	-19.0467656475517	54.4874990280254	-1.88631520149393	-17.6311764305278	-1.87790742309456	-17.6622845912641	-19.1755032324802	68.0358662806098	
860000000	-17.7526700341966	46.9137107997517	-1.91448033227064	-28.154029371618	-1.9065992407095	-28.1746719813594	-17.8000107892443	60.8149320141464	
862500000	-16.8528072536844	38.7175226812218	-1.93792617542659	-38.6097917748919	-1.92966352866421	-38.6384742078103	-16.8493321753023	52.8720140128031	
865000000	-16.2921088626656	30.1959790622472	-1.95608185127511	-49.0206089280215	-1.94832213845224	-49.0477959873567	-16.2504913294855	44.5143687534465	
867500000	-16.0220309320392	21.4386598894556	-1.97138950518707	-59.4314040950874	-1.96268243771359	-59.4618017969784	-15.9382810204025	35.9516156491216	
870000000	-16.013080808487	12.6836069373872	-1.97584286906303	-69.8218391422904	-1.96714632051916	-69.8521997035225	-15.900477843995	27.3020869759582	
872500000	-16.2814174070627	4.00212014021308	-1.9761013050897	-80.2087575946444	-1.96653047490767	-80.2332316240577	-16.1390215565776	18.583003504963	
875000000	-16.8280190572815	-4.48275653590408	-1.96453187678756	-90.6162616844596	-1.96001278287775	-90.652482173534	-16.6586367610063	9.96759325898837	
877500000	-17.6855314511602	-12.609384557753	-1.95371635968194	-101.083358645033	-1.9455479145043	-101.10612561436	-17.5083036153925	1.47106772114988	
880000000	-18.9318492889304	-19.9846750725921	-1.93809997109831	-111.579136104801	-1.92938192818072	-111.594569902863	-18.7549521664124	-6.67588661195545	
882500000	-20.6649064949399	-26.0025601344929	-1.9219639451695	-122.145120533151	-1.91326972652581	-122.16062994607	-20.5263775439411	-13.9729226570144	
885000000	-23.0842405450104	-29.0234881595339	-1.90824773753742	-132.730253042779	-1.9007844449242	-132.754419705069	-23.0934003943222	-19.5446558542245	
887500000	-26.3650023080804	-24.6216649627414	-1.90100116338333	-143.377519138046	-1.89164961845976	-143.392019857498	-26.9984332917185	-19.925299213298	
890000000	-29.7103244727221	-1.21944363771567	-1.90067498778608	-154.044693693028	-1.89248571030817	-154.053075054825	-33.014570860586	2.16668090013072	
892500000	-28.7007985015949	35.5690207446058	-1.90687771740466	-164.701349257472	-1.8979817549007	-164.708226331506	-32.1602117369738	67.3086052259518	
895000000	-25.0990009313551	50.1096548221545	-1.91756179748988	-175.34570662573	-1.91396646911619	-175.353654390285	-26.4147861439973	83.7256308532378	
897500000	-22.2020761739861	50.6866801535022	-1.94278809917392	174.038329671304	-1.93421284568879	174.029871428094	-22.773270264707	82.2438308370749	
900000000	-20.1114590116203	46.1237084674504	-1.96589951297057	163.462560631552	-1.95678433568067	163.457607835624	-20.3740964725195	76.4179758220425	
902500000	-18.6386047966371	39.3741676427444	-1.99291667270289	152.947803744523	-1.98437175162578	152.940766987549	-18.7292015899939	69.0144264849109	
905000000	-17.5989912761984	31.5122674061442	-2.01571080164662	142.461386757634	-2.00624697260098	142.467815985237	-17.5863976091588	60.9713294273255	
907500000	-16.929993465492	23.0277977696513	-2.03765470071252	132.044409710453	-2.02986348958666	132.044685805774	-16.8347841770175	52.5730137425141	
910000000	-16.5639559112254	14.1826147764206	-2.05257021165784	121.657833296855	-2.04466845972855	121.658250384895	-16.3994470643428	44.1018185132771	
912500000	-16.4743437277955	5.09769104047098	-2.06006523191675	111.263408046062	-2.05200311475927	111.262639128393	-16.2457786717653	35.6416238082969	
915000000	-16.6582094667083	-4.07969076059322	-2.05665827335021	100.85612960092	-2.05056190710066	100.873160926559	-16.3739298264791	27.2579875501074	
917500000	-17.1279212225644	-13.3949108058159	-2.05230719212699	90.4609163437855	-2.04409523884186	90.464410909609	-16.7724064649047	19.0598427216311	
920000000	-17.917043413301	-22.7074718881314	-2.04089862140357	80.0082765601951	-2.03305578456421	80.0169574561436	-17.4774161015679	11.2143811014453	
922500000	-19.0972280897228	-31.9101115378959	-2.02396889118861	69.530953887402	-2.0172317374459	69.5387026144735	-18.5358777635816	4.01797722771654	
925000000	-20.78905570129	-40.7925109467302	-2.00864391238735	58.9918442163257	-2.00068992492305	59.0083711954579	-20.0277715675612	-2.03226723776581	
927500000	-23.2417549788687	-48.9837907799821	-1.99602708257801	48.4148752282132	-1.98781344293888	48.4229253447937	-22.0728616602141	-5.79324439369519	
930000000	-27.0246321502698	-54.81673599737	-1.98518966496364	37.7928170203553	-1.97775981649506	37.8034028147729	-24.8536312978564	-4.39780572846828	
932500000	-33.996010282199	-49.7384604191506	-1.98355744469064	27.1538865003457	-1.97468413881822	27.1674092503709	-28.1720291012635	9.52601981991136	
935000000	-38.2198805115147	44.9780565639475	-1.98668748497889	16.4937326722538	-1.97938217942779	16.5040061846135	-29.3301214705545	42.3226944247752	
937500000	-29.2187332919547	67.6173134582088	-1.99727142679334	5.86957251353164	-1.98801039066463	5.88770656723237	-26.5947043202844	66.0524305281041	
940000000	-24.8009881242804	63.5962334140201	-2.01288636451521	-4.73163876613818	-2.00224370145722	-4.71605018499158	-23.5793328255415	72.1781549185024	
942500000	-22.1299593932098	55.8094625738364	-2.03182491758318	-15.3104920499929	-2.02178316115799	-15.2968220579901	-21.3212179869197	70.5789196687363	
945000000	-20.3897786320137	46.9389865087414	-2.05121094289934	-25.8463554749109	-2.04274632073894	-25.8485960428089	-19.7097898449394	65.7529398303019	
947500000	-19.2374016191904	37.6021501964375	-2.06939763652863	-36.3409006700002	-2.05999012209268	-36.3220282618022	-18.6085464414906	59.5263685565142	
950000000	-18.5417350300975	28.0401160082619	-2.08554693084408	-46.8038823262611	-2.07578838611294	-46.7859561448409	-17.9011005090132	52.5477311115914	
952500000	-18.2219693282853	18.3794323734598	-2.09459331238836	-57.2388209658891	-2.08502218239148	-57.2212543817161	-17.5377119302089	45.3362541113608	
955000000	-18.251012205322	8.67031362279126	-2.09871437075026	-67.6689542441644	-2.08860983450103	-67.6484558368629	-17.4909629168357	38.0395313810192	
957500000	-18.6402826538191	-1.07827786810147	-2.09654504519137	-78.1108705985768	-2.0865903404542	-78.089304672122	-17.7624627500683	30.9952645490956	
960000000	-19.4241300677505	-10.7456610597858	-2.08899827945723	-88.5739044284704	-2.07959368992332	-88.5534605291982	-18.363289068251	24.4575572528667	
962500000	-20.6908506504068	-20.2379713763377	-2.08094717841213	-99.0814401081242	-2.07094628224997	-99.0587131835227	-19.3347880629075	18.8763563876562	
965000000	-22.6364204090132	-29.3356090766433	-2.07032095454864	-109.613992986899	-2.06262785760299	-109.595005164451	-20.7463539210674	15.143880021186	
967500000	-25.7043471188646	-37.2187312150628	-2.06238517718329	-120.21356407131	-2.05244148925965	-120.187239461286	-22.6596867350552	14.9979423124833	
970000000	-31.2153363935007	-40.4069151489121	-2.05795038765487	-130.830102283908	-2.04732160184412	-130.799860236397	-24.966523453513	22.1897242644154	
972500000	-42.8242701688301	24.9810742400882	-2.05857483734225	-141.482704773341	-2.04870676517605	-141.452263766387	-26.6275365354494	41.5305447210903	
975000000	-30.8890288406184	88.8859268243522	-2.06563187592749	-152.136337645389	-2.05811251242213	-152.111375919013	-25.7270679472287	65.2060870816928	
977500000	-25.1435417711159	85.5942075826527	-2.08102476956716	-162.780793228415	-2.07141693562869	-162.746805227226	-23.2430042426706	77.8184655572941	
980000000	-21.8109511531818	77.5304566237537	-2.1025802988512	-173.401849214104	-2.09394014245568	-173.364385693124	-20.836117808616	80.5200962197385	
982500000	-19.5800685909585	68.3054726519595	-2.12855438378707	176.031551815089	-2.11925506902413	176.066247456956	-18.9183223134326	78.2661957481747	
985000000	-18.0117887847368	58.5905677807226	-2.15622320025171	165.519853224281	-2.14670194574514	165.547499948256	-17.4651953990629	73.4985892072738	
987500000	-16.9055205492163	48.6440978568898	-2.18315170788321	155.042714698184	-2.17304824313054	155.073474588688	-16.3727389093416	67.6017708294384	
990000000	-16.1613576426882	38.5542628099789	-2.20595859729599	144.618130099102	-2.19685296967062	144.651547952208	-15.6013704242331	61.0151689869893	
992500000	-15.7244020793532	28.3864592934649	-2.22379105941779	134.239041147972	-2.21480069121895	134.27218592907	-15.1058398679357	54.1039637269234	
995000000	-15.5624414031127	18.1730348100306	-2.23347134137096	123.884779356916	-2.22286933972264	123.921734054872	-14.8526602887683	47.1237630727904	
997500000	-15.6705904790986	7.80755655710045	-2.23621670999648	113.533659955726	-2.22792043873337	113.569229056681	-14.8323607693362	40.2063445433703	
1000000000	-16.0565642344833	-2.64795113046808	-2.2288831130689	103.175124983699	-2.22023110009168	103.211515664121	-15.0413908596099	33.5657834256288	
1002500000	-16.7532596741493	-13.3403235745271	-2.21608516654338	92.7775158333297	-2.20746840678035	92.8078629658631	-15.4820731720788	27.4293298525284	
1005000000	-17.8205690766738	-24.30557015504	-2.19619982884237	82.3283399972089	-2.18875337594934	82.3638125381115	-16.1695169837613	22.0860168240428	
1007500000	-19.3724417531462	-35.7942703626174	-2.17579534542311	71.8306957474829	-2.16825029592664	71.8676848316075	-17.110540106309	18.0255475885373	
1010000000	-21.6166522294845	-48.1979052143876	-2.15762709150325	61.2689341421283	-2.14924757347456	61.3091503313902	-18.3052381244428	16.0438538960776	
1012500000	-25.0511771784578	-62.9567555435949	-2.1405391303793	50.6661551879091	-2.13198973354267	50.7048437523469	-19.6746618508232	17.3472829101334	
1015000000	-31.1292256984831	-87.1022134771161	-2.13106571807947	40.0044069072654	-2.12423888343937	40.0801259688526	-20.9778775117881	23.2536830866594	
1017500000	-37.2150276051615	175.318581899901	-2.1292314056626	29.3506225328972	-2.1212279960939	29.3928976603001	-21.6682123684057	33.7963678625318	
1020000000	-28.4304563258135	118.026791293374	-2.13666675799654	18.6868949988691	-2.12816931685137	18.7273505908676	-21.3268590515423	45.2368283422072	
1022500000	-23.6190746414153	99.2475205877365	-2.15130829639935	8.03369085032359	-2.14224699859614	8.07881045668063	-20.2008373089826	52.9224474385564	
1025000000	-20.7079911708722	85.7570362110527	-2.17242446772715	-2.5866724736472	-2.16507062409678	-2.52085475217669	-18.8476809370097	55.6586166175357	
1027500000	-18.7601669495839	73.8781414299298	-2.19616365973225	-13.133658657422	-2.18674034910026	-13.0847191949637	-17.6265760645152	54.7701707279325	
1030000000	-17.4140657458343	62.786923943485	-2.21983030994191	-23.6497119804707	-2.20946132754498	-23.5921044193313	-16.6453215111962	51.4938887712079	
1032500000	-16.5126925135652	52.1422550844983	-2.24185793873463	-34.0929667749818	-2.23200972240614	-34.04477016129	-15.9234298445269	46.7526546444077	
1035000000	-15.9660961187291	41.8000565664556	-2.25787177957839	-44.5073825112003	-2.25018203494881	-44.4609669305405	-15.4662123343319	41.124497670846	
1037500000	-15.7215765253838	31.7781780016121	-2.26592859652537	-54.9013466130995	-2.2562395028323	-54.8536588488782	-15.252584665112	35.0417214032128	
1040000000	-15.7757201547389	21.9756765360811	-2.26701038173402	-65.2739628354463	-2.25838695759784	-65.2335747966558	-15.2890268516659	28.71029905703	
1042500000	-16.1185409462398	12.4424802304231	-2.25921935346595	-75.6846235805074	-2.24876083551281	-75.6339487976321	-15.5840301139346	22.4117183071718	
1045000000	-16.7906421700784	3.29340264420324	-2.2459550191313	-86.1220854954326	-2.23567167376808	-86.0514048428466	-16.156177150899	16.348592726618	
1047500000	-17.8391027044009	-5.37644623614519	-2.22656082065091	-96.592727313652	-2.21772088729294	-96.5433692016297	-17.0471820918016	10.9186747698225	
1050000000	-19.3769059644315	-13.1073197083451	-2.20581546928912	-107.131103599016	-2.19642712625658	-107.074506818783	-18.3031823691371	6.72912741240493	
1052500000	-21.6135532661823	-18.8785193541315	-2.18765531149121	-117.717313072951	-2.17914149725807	-117.666771918742	-20.0109822899843	4.92798275138222	
1055000000	-24.9278282023418	-19.6579969888631	-2.17315881619065	-128.359356488987	-2.16426981178815	-128.307593808527	-22.1859484615645	7.98652338844601	
1057500000	-29.5769421090284	-3.70380150019341	-2.16838456901349	-139.038447301638	-2.15950966644609	-138.989646702547	-24.4351091372293	20.6612922694012	
1060000000	-30.4346162065499	46.356547620025	-2.17180099646724	-149.744525450322	-2.16286042686354	-149.696194007648	-25.1469156385411	44.0454558711601	
1062500000	-25.6535962373838	69.4761234022838	-2.18283454897736	-160.42682716612	-2.17393883562395	-160.373120635739	-23.370054239468	63.4532207245573	
1065000000	-21.9502900309361	70.6642854841964	-2.20515216880939	-171.09407573919	-2.19616337310238	-171.038421845538	-20.9323531622272	71.241350080293	
1067500000	-19.4196080542839	65.6304341529032	-2.23059470462571	178.28856583683	-2.22191094967601	178.34057336171	-18.8207383504168	71.8005277397275	
1070000000	-17.6329643225688	58.272503664807	-2.25898205959906	167.743751658522	-2.25077257625545	167.793881745861	-17.1918372978428	68.7078627895856	
1072500000	-16.3601864333958	49.833862053219	-2.29239768610603	157.224483685234	-2.28389725788259	157.277356767012	-15.9592901492235	63.8584117683981	
1075000000	-15.4805478400343	40.8700538523844	-2.31999502350982	146.788010052985	-2.31141955647257	146.839499142952	-15.0681871888525	58.0391129442655	
1077500000	-14.9225086702297	31.5664788326277	-2.34236036047759	136.393882312448	-2.33367146276797	136.44151650912	-14.4621174409688	51.6993671814214	
1080000000	-14.6420435881322	22.0472186376865	-2.35783661712861	126.018637551403	-2.34866920277258	126.075433671814	-14.1031732431877	45.2060289398297	
1082500000	-14.628435980378	12.3630994804997	-2.36121455354318	115.6894861372	-2.3527563694429	115.736534547045	-13.9809614393121	38.702581644334	
1085000000	-14.8757320564292	2.50158953949035	-2.35918194384035	105.345811624579	-2.34873661656782	105.381453764764	-14.0812950089254	32.3690304446802	
1087500000	-15.4050787667176	-7.50480040339734	-2.34471047005665	94.960427757079	-2.33570989988641	95.0032323625234	-14.3961633367001	26.422863100633	
1090000000	-16.2542880581981	-17.731703049436	-2.32565510929886	84.5487341308282	-2.31861815298949	84.5734934362533	-14.9366117165261	21.1165244679568	
1092500000	-17.4992251624663	-28.2431028856062	-2.30291531708443	74.0556129605033	-2.29428474076176	74.0986361579797	-15.701898356009	16.8296801520863	
1095000000	-19.2791076789688	-39.1686681371786	-2.2815237409524	63.5295895309808	-2.27361837911577	63.5619057572812	-16.6849428507676	14.1443387527778	
1097500000	-21.8770879456333	-50.8789296711101	-2.26025980803593	52.9231954943238	-2.25238321528277	52.9632997754784	-17.8484163933386	13.8961297216518	
1100000000	-25.9860870936103	-64.8920201773501	-2.24376218680955	42.2768506967914	-2.23381678863602	42.3298417937758	-19.0338899681188	17.0483877832893	
1102500000	-34.2848678735039	-91.0232389921334	-2.23880296379147	31.6124788945165	-2.23014068857642	31.6516349345973	-19.9170436557461	24.1960528871741	
1105000000	-35.3502205729122	133.524121610927	-2.2414988698505	20.9177277699415	-2.23180602524226	20.9610265780721	-20.1002676724821	33.5962310425103	
1107500000	-26.5806395435686	104.2808358052	-2.25024948685378	10.2535759483505	-2.24176873123605	10.2955514157151	-19.5029849205966	41.765844837199	
1110000000	-22.4120044615259	90.074735735234	-2.26999859577649	-0.37903914155586	-2.2633157440942	-0.342905717025973	-18.4696750043041	46.2274027211106	
1112500000	-19.8501426686356	78.3999431359442	-2.28998967207326	-10.9815025018939	-2.28054667971096	-10.9399812303553	-17.3977001860313	47.0070732288813	
1115000000	-18.1513028582496	67.5504500510478	-2.31289101390627	-21.5259861247514	-2.30429741380759	-21.4790297544046	-16.4675395894301	45.0871451179716	
1117500000	-17.0106042478465	57.1588982160984	-2.33461501569456	-32.0162136124608	-2.32523748222815	-31.9722329546976	-15.760670182886	41.4130629690356	
1120000000	-16.292405835463	47.0750884721426	-2.35040000750925	-42.4663330478785	-2.34106000090694	-42.4245016400088	-15.2964668775687	36.622506398001	
1122500000	-15.9269374264982	37.2632644541813	-2.36161977418709	-52.891304947662	-2.35308764983351	-52.8420269679026	-15.0794243255895	31.110737726641	
1125000000	-15.8784416700293	27.6745595127024	-2.36562698775742	-63.3134466665229	-2.35655387634906	-63.2676762331153	-15.1147297480338	25.2796600551837	
1127500000	-16.149329919608	18.3904069406021	-2.35968025284195	-73.7309918415738	-2.35067829563166	-73.6840791933323	-15.4146845926842	19.3575622359377	
1130000000	-16.7581608473368	9.48234549538587	-2.34817391347097	-84.1989780657147	-2.33774309621496	-84.1483521037052	-16.0080973524358	13.6664701463007	
1132500000	-17.7573532640204	1.15691807766399	-2.33160749841407	-94.6922134750772	-2.32238055786556	-94.6474938263581	-16.9299269426599	8.66024944921472	
1135000000	-19.260846947203	-6.10676168864976	-2.31483531789591	-105.257776922008	-2.3057842589376	-105.221204916012	-18.2523169193812	5.00352911578362	
1137500000	-21.446729713041	-11.1713930788268	-2.29655724504751	-115.877608493673	-2.28877435738658	-115.833468054115	-20.0374710698247	4.18452932254188	
1140000000	-24.6530258978192	-10.6677039058103	-2.28364477581515	-126.529497837814	-2.27877736615853	-126.491149553226	-22.273759535162	9.1159779913957	
1142500000	-28.8958698247958	7.5702706375839	-2.28145509167098	-137.25960699642	-2.27414233134283	-137.216124284311	-24.3623482946583	24.782108358812	
1145000000	-29.1441379696439	53.2379345127117	-2.28756445847428	-147.982002688573	-2.28117989663681	-147.937366377303	-24.3877803970318	49.377654467737	
1147500000	-24.7242258261511	73.9795694378769	-2.30522770781256	-158.70077483245	-2.29714822505419	-158.659536493993	-22.2045499126864	66.1649585706061	
1150000000	-21.2045315881263	75.4309584496653	-2.33359052804516	-169.403278834295	-2.32403101491619	-169.364739657773	-19.7295080551591	71.7093678386785	
1152500000	-18.742595060233	70.804812666893	-2.36563447922034	179.979276332003	-2.3582878737973	-179.980199068144	-17.689981340495	70.919741788656	
1155000000	-16.9826697565409	63.8300318199188	-2.40434029394508	169.410914074918	-2.39606704804632	169.454650705045	-16.1181200201516	67.1315048638342	
1157500000	-15.7208245008518	55.7783119424529	-2.44326078686645	158.921975505996	-2.43622029260418	158.959823308337	-14.946052697959	61.7456161481126	
1160000000	-14.8396384169246	47.1872411458333	-2.47915218017785	148.507423812677	-2.47197549221922	148.542115799437	-14.0992820472901	55.5206505031785	
1162500000	-14.2720347857852	38.307536525646	-2.50809919700308	138.138412111484	-2.50075503282765	138.178092328089	-13.5320386035213	48.8556655329792	
1165000000	-13.9768268113417	29.2533700229537	-2.52729836957954	127.814593892507	-2.5192774541904	127.858041459099	-13.2097510490003	41.9800817741301	
1167500000	-13.9408002847345	20.1191211953634	-2.53607575938793	117.513834493643	-2.52776262604506	117.55575030448	-13.1245338933017	35.093984971725	
1170000000	-14.1617683292033	10.9100413953481	-2.530914928349	107.201001653987	-2.52244438939048	107.251816513974	-13.2638922215996	28.3225370979451	
1172500000	-14.6571427304229	1.69708073400213	-2.5184285820989	96.8577186517815	-2.50997138790898	96.8987394250947	-13.6379494201342	21.8444799169777	
1175000000	-15.4693130663144	-7.46375789637443	-2.49584781759148	86.457233879413	-2.48680958995366	86.4963212562668	-14.2612106214738	15.9133971832635	
1177500000	-16.6695912181239	-16.4953041366409	-2.46807718904336	75.9840640851974	-2.45928015241531	76.0278659482187	-15.1574934251198	10.9019380353026	
1180000000	-18.3948737949768	-25.1230069155112	-2.44209360624607	65.4307875124272	-2.43301953463411	65.4644047297589	-16.3570355234868	7.49980400011922	
1182500000	-20.9209844072998	-32.8776350613575	-2.41410662390432	54.8018874133275	-2.40454051002941	54.8450985168087	-17.8595449443688	6.82745788230237	
1185000000	-24.9077695947003	-37.7487991472195	-2.39609959887891	44.1037501824232	-2.38718211434403	44.1544525915854	-19.5445422803028	10.8369063353578	
1187500000	-32.4684537085522	-26.575150260773	-2.38817569255628	33.3654711674329	-2.37895478444896	33.4129019111519	-20.9307919267218	21.5490563638209	
1190000000	-33.2374635694212	69.535967800317	-2.38996997778691	22.6068999949259	-2.38110442976278	22.6590953349445	-21.1254753426939	36.8995332424912	
1192500000	-25.2554433804187	83.5812864050388	-2.40964996888269	11.8594776121021	-2.40048153038022	11.9076259164446	-19.9453225956678	49.3443187654631	
1195000000	-21.1163187938774	79.1583127867367	-2.43749805879367	1.15298898105772	-2.42805889882796	1.20637549284571	-18.2575079186467	54.9430752487585	
1197500000	-18.5181560391941	71.576972839908	-2.47365067994309	-9.48643312768731	-2.46464824018357	-9.43313027726978	-16.674135685787	55.2344400249247	
1200000000	-16.7434984400304	63.0203659739371	-2.51471228711738	-20.0515403037687	-2.50458029742279	-19.98890852259	-15.3840071187481	52.3420022599574	
1202500000	-15.5115084852984	54.147800019761	-2.55377796987581	-30.5244723667486	-2.54484570586816	-30.4644652368272	-14.4077173573238	47.6089090458824	
1205000000	-14.6771830764973	45.116334268723	-2.58884179710706	-40.9249238036824	-2.58041768904325	-40.8674137088426	-13.7125708994812	41.7980577584123	
1207500000	-14.1634335185469	36.0905192596748	-2.61649629279786	-51.2702021223288	-2.60761613565784	-51.2115013149064	-13.2756926670592	35.3282005415611	
1210000000	-13.9260655949091	27.1393144773908	-2.63307501439407	-61.5641543677703	-2.62713894725423	-61.5044389236932	-13.0805316603495	28.4984919518946	
1212500000	-13.9522891098669	18.2837142152458	-2.63824608426818	-71.8721442413731	-2.6296420384251	-71.8057633803272	-13.1226365287857	21.4454788685237	
1215000000	-14.2345941101162	9.61417246613559	-2.63078789824949	-82.1850123228661	-2.62209499770008	-82.1214772981168	-13.4065805543956	14.3545659734554	
1217500000	-14.7954135827099	1.26835707523078	-2.61279910170665	-92.5324425606504	-2.60426523702018	-92.4654244820062	-13.948120399676	7.3529214742849	
1220000000	-15.6694143388877	-6.61149576033894	-2.58625711359375	-102.96067048667	-2.57433192725768	-102.88584802407	-14.7879017048585	0.676399431994286	
1222500000	-16.9132023451011	-13.6038280523897	-2.55759880028336	-113.441226872139	-2.54878638528224	-113.375031255836	-15.9922670841734	-5.26690049604209	
1225000000	-18.640673097252	-18.935821557282	-2.52809473428045	-124.022351638249	-2.51982208432097	-123.955467077633	-17.658946711279	-9.83121476833839	
1227500000	-20.9935724351909	-20.8037639131757	-2.50337452420877	-134.677250994632	-2.49505916734496	-134.616502466652	-19.9359546623364	-11.3793386582824	
1230000000	-24.0115075776811	-14.4752821861028	-2.4887521269393	-145.394334550624	-2.48072750882891	-145.32258443658	-22.9330745058739	-5.61869237104294	
1232500000	-26.5120658218797	9.01238592287641	-2.48287174715015	-156.15021671186	-2.47405028935652	-156.084681068691	-25.8302242891239	16.589345660331	
1235000000	-25.2532950638672	38.6326650016906	-2.49009482407758	-166.918208595472	-2.48137779893071	-166.844509169936	-25.1121482941679	49.9446575030854	
1237500000	-22.1676795153422	50.5574705007758	-2.5103792882685	-177.661500765151	-2.50234602643797	-177.592836439022	-21.9329259039141	65.7896693167132	
1240000000	-19.5701257848344	51.0003555442643	-2.54015169975224	171.644203638139	-2.53340543225437	171.711517363573	-19.1607345433473	68.50494139701	
1242500000	-17.6590075645296	46.5485030669343	-2.58001483432704	161.011653720786	-2.57062727333428	161.084103742994	-17.1012750926488	65.8206923796466	
1245000000	-16.2781116413835	39.9071834915461	-2.62180176687198	150.462690725328	-2.61322764810717	150.537922123033	-15.6016528811891	60.8335665408195	
1247500000	-15.3098694429031	32.0771275901829	-2.66194608989921	139.999669127366	-2.65322405757824	140.075731427862	-14.5224284544269	54.7534839369754	
1250000000	-14.6797246985929	23.635226344469	-2.70043779823087	129.597093507393	-2.68727257412432	129.671058066659	-13.7818767364125	48.1454274857663	
1252500000	-14.335061188227	14.7173885427304	-2.72480837753984	119.275365524142	-2.71530493495237	119.354019812162	-13.3120860063172	41.3816648369376	
1255000000	-14.2583029973216	5.49709077572007	-2.74139541859125	108.973533166629	-2.73218862114643	109.053891759618	-13.0855106745301	34.6137708649702	
1257500000	-14.4372949500232	-4.01090398375302	-2.74663003362746	98.6855822238448	-2.73712849155717	98.7657827763627	-13.0813590975825	27.991472974336	
1260000000	-14.8867153312026	-13.8143263094553	-2.73822681859175	88.382880506773	-2.73109963214344	88.4748413835701	-13.2901447293248	21.7304887887482	
1262500000	-15.6399101830059	-23.9042558008121	-2.72476147319132	78.0190822579253	-2.7150060760612	78.1002377188158	-13.7121370858893	15.9675119609868	
1265000000	-16.750023269263	-34.4309976496852	-2.70232784482972	67.6039233875044	-2.69277225078932	67.6887982781551	-14.3442567034137	11.0284247444679	
1267500000	-18.3303451991368	-45.6386772205107	-2.67653049340068	57.1243691320357	-2.66649943012291	57.2079323635943	-15.1789567935072	7.32131383320955	
1270000000	-20.5774329548154	-57.9214773776741	-2.65273596986418	46.5638885652016	-2.64156770873128	46.6458125921455	-16.1965230640045	5.48165529051312	
1272500000	-23.9254083048813	-73.1256364925541	-2.6312889009528	35.9594356005843	-2.62057971409201	36.0439985966466	-17.2944857823112	6.18681642920216	
1275000000	-29.4633183656866	-98.6358965321672	-2.61765575610315	25.2929220942659	-2.60745003019434	25.3809050501474	-18.2896208285591	10.2108177404087	
1277500000	-34.8758465204619	178.981689387274	-2.612997252844	14.6030248474251	-2.60432008645326	14.6878127629637	-18.8609664870755	17.1099272786426	
1280000000	-27.8118719805805	118.416686808631	-2.61955144944381	3.91242769801557	-2.61115008768178	3.99433795418335	-18.7765141967037	24.6886266193271	
1282500000	-23.1656332990412	97.5252669208328	-2.63312557083636	-6.76595388011781	-2.6259023469237	-6.67951795163267	-18.1187205429834	30.2894409416785	
1285000000	-20.309271111561	83.5555297295015	-2.654948761486	-17.3907753850764	-2.64656438735648	-17.3112853120377	-17.21785953078	32.5575194449358	
1287500000	-18.4102141715204	71.8135785004444	-2.68104520375501	-27.9709738684594	-2.67332366053457	-27.8797250799252	-16.3339904583034	31.8888907509012	
1290000000	-17.1208884521778	61.1466028873361	-2.70630070278038	-38.4945563761461	-2.69798298509369	-38.389676532789	-15.5993513836151	29.0214005809782	
1292500000	-16.2685402636525	51.1440195781807	-2.73198053972166	-48.9525925248789	-2.72569493224251	-48.8536810396162	-15.0822169482458	24.6623339822063	
1295000000	-15.769791448953	41.6688737945823	-2.75064256871434	-59.3717963819251	-2.74431196490632	-59.2730198049891	-14.785972182615	19.3232012747725	
1297500000	-15.5796772185317	32.6916127236637	-2.76186192665626	-69.7614965025029	-2.75521837867821	-69.6652229207045	-14.7265958853423	13.3225759629252	
1300000000	-15.6684539288797	24.227962563796	-2.76652993859379	-80.1432404190215	-2.76142653543414	-80.0485695481026	-14.9167121964192	6.97548092240218	
1302500000	-16.0417209195248	16.4244138797734	-2.7602159274107	-90.5463869941415	-2.75361510963333	-90.4457698052147	-15.3653120308046	0.387878596771387	
1305000000	-16.7040482699022	9.48436872974746	-2.74857675624072	-100.977939856104	-2.74241950640047	-100.87733675748	-16.1248252639229	-6.1345182006428	
1307500000	-17.6823262181522	3.89793553504704	-2.73198461256543	-111.459057030262	-2.72595490042802	-111.355729322321	-17.2498381754589	-12.2844196052572	
1310000000	-19.0052743313933	0.537217919234772	-2.71279756315053	-121.996247796864	-2.70827895604933	-121.891514096029	-18.8559515068826	-17.5926633923767	
1312500000	-20.6260092777558	0.858679940178352	-2.69939303224447	-132.59451620227	-2.69319029449584	-132.487800068986	-21.1360302434097	-20.709915032297	
1315000000	-22.299740465803	7.36563973132495	-2.68916343353797	-143.240149018337	-2.68307577266658	-143.131702620625	-24.4099427046332	-18.2531866753481	
1317500000	-23.229059300452	21.0237865667382	-2.68597284717658	-153.921422096136	-2.67964254143424	-153.811800737372	-28.6068038842794	1.65567121522118	
1320000000	-22.6099476620955	36.0703218664526	-2.69320163173618	-164.621492269806	-2.68368899676271	-164.509451885444	-28.8174415759218	47.4337494962434	
1322500000	-20.9438903159072	44.8158951096325	-2.70645574921196	-175.297474342055	-2.69980556834451	-175.186913587514	-24.6128176245383	69.4304940254918	
1325000000	-19.1566796633494	46.8493358349965	-2.72949299230585	174.045256698631	-2.72345593237404	174.154963753995	-21.2097276911862	72.4066271985401	
1327500000	-17.6392142310319	44.5567278933941	-2.75906432137157	163.432458410272	-2.75241139323556	163.545082220449	-18.8216589530115	69.3442287918361	
1330000000	-16.4500449754154	39.7984798469734	-2.7903584351324	152.889074493603	-2.78628545777489	153.013282370537	-17.1206186612812	63.9543215411343	
1332500000	-15.5864482888897	33.6379672000884	-2.82360650645914	142.392916595141	-2.81676355310453	142.507213010743	-15.9123279915791	57.4702263516403	
1335000000	-15.003257686488	26.6415862346507	-2.85223510481836	131.96473311987	-2.84539833063278	132.080907275402	-15.0749514570291	50.5626748962806	
1337500000	-14.6871069048671	19.1105711853287	-2.87400662612121	121.58111527423	-2.86627248170453	121.702433295593	-14.5459415609246	43.4497568693191	
1340000000	-14.6211025318767	11.3074481258419	-2.88804618153814	111.222842447652	-2.8798966882063	111.333098767431	-14.286418658497	36.3536202572657	
1342500000	-14.80532320088	3.34331799969235	-2.89260308565867	100.888791828455	-2.8853527137297	101.009347583712	-14.2729470840319	29.4710986960858	
1345000000	-15.2618647723942	-4.6268712294728	-2.88860827176579	90.5313628445711	-2.88086332244488	90.6595305560384	-14.5073543264936	22.8787862991777	
1347500000	-16.0263735476509	-12.4644627430618	-2.87542806108769	80.143658729758	-2.86801938629147	80.2693997656854	-14.9912983971318	16.8740270056926	
1350000000	-17.1616277384205	-19.9131987090692	-2.85794165274793	69.7133898262447	-2.84798891975121	69.8380619076572	-15.7337928790111	11.775196251455	
1352500000	-18.7874963921901	-26.4528667514405	-2.83413738306648	59.2038577974829	-2.82785537199169	59.3287317698228	-16.7660601146108	8.17381960777157	
1355000000	-21.1143294384283	-31.016392431066	-2.81368499228972	48.6383383095256	-2.80666543962023	48.7572702670138	-18.0605201072399	7.0475274199203	
1357500000	-24.5398391383599	-30.2635831560316	-2.79808358038602	38.0047830403943	-2.79063499044692	38.1320904775606	-19.5264283488734	9.89900991192851	
1360000000	-29.2471662495326	-10.9270809797017	-2.78756884742607	27.3200158602498	-2.78146466075274	27.4614824455769	-20.7853783914073	18.4206389204494	
1362500000	-29.4416865739433	40.3659198450693	-2.79123827965947	16.6201326381342	-2.7835455476114	16.7489748582225	-21.1340908659581	31.3304749978615	
1365000000	-24.6178588582283	61.4158314523128	-2.80292877698454	5.91703608672569	-2.79531464810439	6.03511585752343	-20.2771355232274	43.1426354580676	
1367500000	-21.0226716498668	62.5475390349463	-2.82484525169839	-4.77243542131022	-2.81666046159369	-4.64559829249481	-18.7813061439972	49.4589991163087	
1370000000	-18.5563403986974	57.9536255511291	-2.85640306260507	-15.4005054302599	-2.84934282648295	-15.2953128907939	-17.2570424606122	50.6604289886129	
1372500000	-16.8055578322869	51.2397551642678	-2.89068504641848	-25.982437228083	-2.88316731232981	-25.8554740543037	-15.9437118400655	48.4670092625623	
1375000000	-15.5525183191356	43.5979357921846	-2.92795036156368	-36.4851778144978	-2.92056495619098	-36.3536176466262	-14.911837424662	44.221394345335	
1377500000	-14.6745834653463	35.5482636050118	-2.96363095205369	-46.9115108907216	-2.95544125183153	-46.7791018453135	-14.1452503872724	38.7316455817022	
1380000000	-14.1048290815253	27.2904707949322	-2.99205356959138	-57.2750550905297	-2.98269971953196	-57.1397370757275	-13.6261621668114	32.4803867826683	
1382500000	-13.793339791654	18.9904728870905	-3.01354104835704	-67.593946131519	-3.00543414412794	-67.4660035463102	-13.344765584914	25.8231818012847	
1385000000	-13.7279136671603	10.7309000349272	-3.02351954779813	-77.8817940914384	-3.01500748308429	-77.7607566710182	-13.2816128307692	18.8832086947341	
1387500000	-13.8994969423382	2.58295207056303	-3.0216319755074	-88.1782058109887	-3.01285389434433	-88.0505995912067	-13.4421592316989	11.8645877500446	
1390000000	-14.3119620764554	-5.31913436965141	-3.01026749735618	-98.4977070446791	-3.0001714750987	-98.3687966709373	-13.8353516002176	4.93506657509532	
1392500000	-14.9961540059884	-12.8120624690813	-2.98829155721928	-108.849185494687	-2.97775558745671	-108.72635810861	-14.4806744255651	-1.80195958487182	
1395000000	-15.9850296337327	-19.6228792883778	-2.95954469552163	-119.27311888199	-2.95073235305292	-119.151971000064	-15.4211619006624	-7.98878675965381	
1397500000	-17.3450628652054	-25.1814523158435	-2.93061479670236	-129.769129018271	-2.9204500549068	-129.644485004489	-16.7112971896774	-13.1289056166401	
1400000000	-19.1554885307748	-28.4528584546273	-2.90133954515445	-140.328942379037	-2.8927303484013	-140.209188809701	-18.43491065587	-16.381997828756	
1402500000	-21.4692878241963	-27.1766937962562	-2.87831508730239	-150.972416718716	-2.86808481468808	-150.848928619024	-20.6490201437666	-15.5720099028931	
1405000000	-24.0245294665857	-16.5182970071118	-2.86295212547655	-161.661349330917	-2.85177745358507	-161.53778744378	-23.2018693434855	-6.64056185821988	
1407500000	-25.2047901601954	6.76393991146609	-2.85823101145873	-172.377409115994	-2.84615935021826	-172.250597556883	-24.790779723708	14.9154868188319	
1410000000	-23.5933820772567	27.7676675953949	-2.86370735650771	176.893480166706	-2.84951536522945	177.021197756782	-23.6608994475252	37.9035327360454	
1412500000	-21.099659423803	35.9089284070629	-2.88024904161562	166.206132733099	-2.86801419328021	166.335675402615	-21.2572190632857	48.6871452859212	
1415000000	-18.9804679577865	35.9731719656095	-2.90432451487324	155.556348389354	-2.89178479116918	155.68412335525	-19.0829922712628	50.2944243201993	
1417500000	-17.3741081919548	32.1997947489511	-2.9339053688933	144.963017830083	-2.92193842207758	145.090352236851	-17.41442971487	47.4344140896655	
1420000000	-16.2019302149062	26.51250656523	-2.96569387293801	134.445613865691	-2.95281984254839	134.570026983228	-16.1925129746556	42.3866600712684	
1422500000	-15.3939861283445	19.8397078287013	-2.99212237705714	123.975198556976	-2.97984972979701	124.101402307231	-15.3502048826414	36.1006042510885	
1425000000	-14.8905449873366	12.6567369351373	-3.01400576691537	113.571261026336	-3.00276846362262	113.689533103655	-14.8237718522608	29.2263770022186	
1427500000	-14.6524531882506	5.24896374391769	-3.0277310731713	103.195871873531	-3.01604977328919	103.3244340457	-14.5809388008667	21.9912256967546	
1430000000	-14.6768816213667	-2.1586659436072	-3.02995092141205	92.8292395215188	-3.02152098068374	92.9748918982729	-14.6132834576899	14.6263466099636	
1432500000	-14.9549009035444	-9.41993251973103	-3.02743379319936	82.4714232734464	-3.01649057904408	82.6015683146505	-14.9086558389382	7.32219994898247	
1435000000	-15.5031691765261	-16.2697097285326	-3.01443202220296	72.0677340746833	-3.00352510211251	72.2127522983679	-15.4983662387399	0.206968228347134	
1437500000	-16.3376314491722	-22.4593477004664	-2.99321337129485	61.624073808369	-2.98229543984208	61.7591188754782	-16.4226668417985	-6.43364354673719	
1440000000	-17.5074521875337	-27.3741552622587	-2.97155812428671	51.1235348821231	-2.96025245409677	51.2333167764291	-17.7400523530036	-12.13418602717	
1442500000	-19.0445538573707	-29.9956814476781	-2.94714472974894	40.5386772393664	-2.9361720580747	40.6770609422046	-19.6007494091705	-15.9491239001672	
1445000000	-20.9448421499589	-28.3842229076228	-2.92797336712208	29.9018492007283	-2.91645578631632	30.046208162561	-22.1237902282802	-15.5346963016199	
1447500000	-22.8793767857961	-19.4502226556174	-2.91576811850079	19.2164716749808	-2.90570512390488	19.3636712420506	-25.2954468624099	-4.74596266353005	
1450000000	-23.7625741293871	-1.98260914983787	-2.91406934590983	8.50920951169538	-2.90052955849511	8.65930778184327	-27.1289555778229	25.1892763202588	
1452500000	-22.706817958187	14.8520574261569	-2.92264507356433	-2.20994941101326	-2.91226178305622	-2.06968246913703	-24.8864694149251	52.864105567372	
1455000000	-20.7242123640725	23.0310977476877	-2.94103940073186	-12.905626323998	-2.93091350778684	-12.7678588732663	-21.712124887087	61.9534706514028	
1457500000	-18.8340839256429	24.0403022899025	-2.96817775432184	-23.5611834282738	-2.95690873869537	-23.4216548648958	-19.2114250953145	61.71147841791	
1460000000	-17.3031440174868	21.0487876534334	-3.00031234866074	-34.1661621660168	-2.99079464675821	-34.0192773370088	-17.3825048646751	57.6668623122762	
1462500000	-16.14179856669	15.8508398546046	-3.03385654513924	-44.6780442861457	-3.02316977777656	-44.5400402862948	-16.0454701417797	51.7726905309002	
1465000000	-15.3066669680072	9.41538308646886	-3.06751188891303	-55.1277524519035	-3.05482176532332	-55.006018380588	-15.1084341003948	45.0615868735573	
1467500000	-14.756793326716	2.2719130732594	-3.09277853447598	-65.5350587055252	-3.08248640995752	-65.3974977366304	-14.4860665961751	37.9170431765233	
1470000000	-14.4690510303486	-5.29566245643035	-3.11062540548434	-75.8751835354476	-3.1016679712158	-75.7570708228767	-14.1412579190006	30.5488476182169	
1472500000	-14.4220925834633	-13.1059860023331	-3.11877936960583	-86.2260738350832	-3.10903315212717	-86.0869675119258	-14.0527698660137	23.2266700920763	
1475000000	-14.6158054648746	-20.9862552993827	-3.11735945928838	-96.5546091729979	-3.1066447163354	-96.4327110128194	-14.2033550960277	15.9785855752996	
1477500000	-15.0648120883906	-28.860232432536	-3.10414864196393	-106.930200590729	-3.0948068545837	-106.776878407026	-14.6104236729037	9.00107098410386	
1480000000	-15.7918383105597	-36.5417335674301	-3.08370759807277	-117.353095900833	-3.07068119912657	-117.173791074614	-15.2859741739715	2.54644275974778	
1482500000	-16.8512168028307	-43.7806549670373	-3.05746576742197	-127.808394280517	-3.04817551106606	-127.651312913277	-16.2664683864606	-3.16277179231429	
1485000000	-18.3255180010549	-50.0974068001932	-3.03059630247384	-138.353029159927	-3.02092739276423	-138.207565892703	-17.6038396109215	-7.38111644236422	
1487500000	-20.3418183310734	-54.4908218339288	-3.00579889667455	-148.961821956364	-2.99561142092831	-148.801396720603	-19.3669836340242	-8.89473863471499	
1490000000	-23.0905805482974	-54.5316590647255	-2.98726554708742	-159.630703859847	-2.97940613561251	-159.469031938187	-21.51884200286	-5.24162831860125	
1492500000	-26.5562769773698	-43.3043711247991	-2.97585448952394	-170.344676311617	-2.96477312756043	-170.175970447478	-23.5476174261785	7.71291048680295	
1495000000	-28.4374495858988	-11.1958873823766	-2.97661156165179	178.932256377264	-2.96278744732539	179.105479326563	-24.0006671133973	29.0990269949598	
1497500000	-25.8788136445516	16.0934029858576	-2.98562500036994	168.200577162398	-2.97337245314125	168.379877451424	-22.3730879110156	46.0059450274714	
1500000000	-22.6983586460304	23.3941281904067	-3.00307943044786	157.511075874531	-2.98962730804997	157.685993592937	-20.1939114901757	52.705853270653	
1502500000	-20.3185520885486	21.7936709692937	-3.02987659515574	146.858146092296	-3.01742993284644	147.035044165984	-18.3340390586873	53.0501528207425	
1505000000	-18.6308672082988	16.5900943712248	-3.05910685703439	136.265705486041	-3.04643460718749	136.448058859701	-16.8823270095342	50.0374411929644	
1507500000	-17.4751880758084	9.72317410902122	-3.08884179815964	125.74183252352	-3.07608034769537	125.916161019523	-15.8237255761385	45.3270618541595	
1510000000	-16.7243577203521	1.94566949287545	-3.11724846223604	115.268403539072	-3.10193474602017	115.43508245239	-15.0851018018633	39.8240152392081	
1512500000	-16.3376874625847	-6.32003484851408	-3.1353106031614	104.842717555145	-3.1233960955123	105.011720578797	-14.642166933701	33.8194127596305	
1515000000	-16.2669346382511	-14.8954994083187	-3.14684405076839	94.4445691093847	-3.13496243958625	94.6100377113004	-14.4538823270451	27.8111086117744	
1517500000	-16.5169608908744	-23.5937188623734	-3.14869768859369	84.0318478461372	-3.13770458775686	84.1992012930376	-14.5078740269864	21.9819390543498	
1520000000	-17.1167154340711	-32.3733613480394	-3.141604542792	73.6078558470956	-3.13373563798794	73.7872654791669	-14.8052865518575	16.5900996145939	
1522500000	-18.1219136065564	-41.1140179300867	-3.13041394394102	63.1368250354021	-3.12075140180162	63.2999965159822	-15.3177498067478	12.08917148333	
1525000000	-19.6683444118189	-49.591941089377	-3.11422907265718	52.6212788454114	-3.10393398965518	52.7791077858925	-16.0714696066258	8.90863702700305	
1527500000	-22.0173561062161	-57.3363325931787	-3.09926377706707	42.0201513142925	-3.08958911417537	42.1887717140908	-17.0269004657766	7.70606040426311	
1530000000	-25.8073421102687	-62.6460149813941	-3.08668319142736	31.3613848045322	-3.07670604964518	31.5251392815841	-18.0641504297417	9.52566798077888	
1532500000	-33.2604877175311	-54.4337801066918	-3.08221677238655	20.6763148232683	-3.07171746420881	20.8468009610151	-18.9643481007424	15.1965029425295	
1535000000	-34.8356352790612	47.8268366370121	-3.08673929862014	9.9471149102652	-3.07573276238343	10.1219320356337	-19.2983729308735	23.9622024971581	
1537500000	-26.1480236766667	62.4145489113883	-3.10202754888055	-0.778868756451551	-3.09136550375368	-0.607254791141971	-18.8385126522573	32.851799185982	
1540000000	-21.7558642651353	57.6785461584788	-3.12933053704539	-11.4664461219693	-3.11689103675445	-11.3138010559308	-17.784612835339	38.8134073637166	
1542500000	-18.9857405729112	50.0033634302631	-3.16442451107756	-22.1450966563287	-3.15236857741708	-21.9756468681551	-16.5540477856904	40.8280116172025	
1545000000	-17.0546947644323	41.338763235894	-3.20724697419946	-32.7430279695726	-3.19252353459279	-32.5682703357937	-15.3987292442888	39.837082343099	
1547500000	-15.680576534264	32.3846260332042	-3.24904624064821	-43.248663936015	-3.23636951036061	-43.0846184356032	-14.4355168850435	36.7220951465557	
1550000000	-14.7097216134514	23.3050747801215	-3.28884438796347	-53.6933111468391	-3.27722475929846	-53.4953733388798	-13.6925789424556	32.2551158704644	
1552500000	-14.0577768719818	14.1900445786009	-3.32576544401642	-64.0407614472793	-3.31299826870662	-63.8796799699929	-13.1496692939496	27.0099977918316	
1555000000	-13.6735352686347	5.10437827601809	-3.35157483982304	-74.3458861424696	-3.33990702598329	-74.1937252864808	-12.8192655613245	21.2476068606894	
1557500000	-13.5414548038085	-3.8864217154796	-3.36687960335951	-84.6263899931251	-3.35482698338484	-84.4713609447041	-12.6941538400608	15.2058350933673	
1560000000	-13.6463763543375	-12.7725492218608	-3.36855063683887	-94.8975847901498	-3.35986538658166	-94.7735317809637	-12.7656926542634	9.11625977618386	
1562500000	-14.0044593282041	-21.4748772736358	-3.35882388352931	-105.199916710221	-3.3473599605662	-105.046356180813	-13.05668658139	3.15116530695428	
1565000000	-14.6317476124903	-29.9060275513474	-3.33775209818173	-115.552444497495	-3.32709627061619	-115.393325123882	-13.5631446691586	-2.47764247543879	
1567500000	-15.5831609771089	-37.9479548521763	-3.31044346775716	-125.965431968665	-3.29865830073939	-125.806812314841	-14.3111809376166	-7.45947182001242	
1570000000	-16.9411855710126	-45.1959805531312	-3.2799581329541	-136.456983718404	-3.26499249875026	-136.284442722219	-15.3270604841486	-11.2779270356529	
1572500000	-18.8191689623115	-50.9372523011273	-3.24978058051912	-147.056496196041	-3.23807682196742	-146.888342957717	-16.6136469941683	-13.2142108104983	
1575000000	-21.4497954863543	-53.3010210404135	-3.2237249980421	-157.72276563935	-3.21396729549812	-157.552734481697	-18.1388545642552	-11.8350703739219	
1577500000	-25.0931709551253	-46.5669514792659	-3.20983971544924	-168.453955311494	-3.19916589038602	-168.280139297692	-19.6707945700871	-5.3863881602273	
1580000000	-28.3086878146723	-15.9901329966683	-3.20522727744249	-179.241284688888	-3.19698254137837	-179.037780235721	-20.605068326052	6.8036969271021	
1582500000	-26.047989670668	20.4418280103314	-3.215911045866	170.015771674885	-3.20449539361101	170.193447666155	-20.2927112417034	20.85244496556	
1585000000	-22.2745359541916	30.9774455659662	-3.23696970472722	159.278289683023	-3.22679237078909	159.449784253127	-19.0057589355962	30.3251098279378	
1587500000	-19.4834419873983	30.0466323860421	-3.26941294960751	148.587749692823	-3.25818353739703	148.757605686844	-17.4900647072132	34.0133404895492	
1590000000	-17.5170084478354	24.9879199487907	-3.30881781694929	137.989858472258	-3.29736269154891	138.112238570733	-16.1241659429301	33.6114254878322	
1592500000	-16.1323898341073	18.2127051917261	-3.3480763377364	127.430130904992	-3.33622325428224	127.59439172124	-15.0540912144469	30.6496872410028	
1595000000	-15.1790857588256	10.6337700165139	-3.38529664568888	116.967168148732	-3.37372793995502	117.130078927383	-14.2532887343794	26.3354658026616	
1597500000	-14.5734898871656	2.67609940927404	-3.41703484374871	106.5738034859	-3.40496225947088	106.743262133767	-13.7190954827154	21.1815918325167	
1600000000	-14.2744641700444	-5.49019046208833	-3.44183088842107	96.2376534897465	-3.42918542515423	96.4357042331847	-13.4409153339777	15.5703232741381	
1602500000	-14.2338815731202	-13.6816882080775	-3.44859045118308	85.8807345538102	-3.43795023575062	86.0667122598188	-13.3697284509514	9.86591772003457	
1605000000	-14.4762891314841	-21.7907727345674	-3.45127065356596	75.5678973386303	-3.43954633318695	75.7397213775688	-13.5446714132571	4.28159425466672	
1607500000	-15.002462201567	-29.6321021710235	-3.43910705422965	65.1903831157037	-3.42864356024198	65.3742774208249	-13.9440109993741	-0.891062888901788	
1610000000	-15.8636659801371	-37.0594815156762	-3.41924046909586	54.7665748597629	-3.40927213057007	54.9387157767906	-14.5901486341526	-5.35334216459663	
1612500000	-17.1326422365931	-43.6359123335656	-3.39712656052973	44.2640509938677	-3.38646833983301	44.4478396325052	-15.4982008602008	-8.55681049993563	
1615000000	-18.929066214912	-48.5344921081689	-3.37373169753401	33.6847438982593	-3.36320651210829	33.8647099999104	-16.6515130262886	-9.62105436790005	
1617500000	-21.4456203121539	-49.7153096667646	-3.35553958441744	23.0328001649243	-3.3448402698277	23.2174048421875	-17.9598646560164	-7.27684099597106	
1620000000	-24.7899555098283	-41.359064228023	-3.34670149487931	12.3145970801964	-3.33444173741601	12.4984638189326	-19.1449107094441	-0.208901842871533	
1622500000	-27.2828390151062	-11.8508491421519	-3.34932711644515	1.55498879429371	-3.33768109782162	1.74259963332582	-19.6505930774423	11.1153070305039	
1625000000	-25.1195506612359	19.8745895627986	-3.36631081261788	-9.20389597621955	-3.35176307546532	-9.01369769289887	-19.1098839109802	22.5981941424774	
1627500000	-21.6594316421738	29.9889233348902	-3.39369506554525	-19.9277751254389	-3.38151852311075	-19.7438331341604	-17.8544642586002	29.9032986591606	
1630000000	-18.9960623821244	29.4975299930836	-3.43100279247504	-30.6001973374101	-3.41930492709964	-30.4114923251666	-16.4465277891145	32.3988654728458	
1632500000	-17.0636224055529	24.9748653601485	-3.47582194434402	-41.1934447488801	-3.46294117049859	-41.0025560558362	-15.1824863337428	31.4386979830559	
1635000000	-15.6758435911542	18.6553430058168	-3.52244222457039	-51.6892352283778	-3.51164920452943	-51.5092727172633	-14.1598722211119	28.3243369715455	
1637500000	-14.6977702630775	11.4693858657488	-3.56471679094689	-62.1144178762864	-3.55459037718473	-61.9289039846322	-13.3861610487598	23.8385255209884	
1640000000	-14.0482524625508	3.87872089193799	-3.60039175417745	-72.461780711633	-3.59023065027253	-72.2735476383613	-12.8536247744245	18.5765461584478	
1642500000	-13.6908920820208	-3.87414102149324	-3.62483741981697	-82.7513801977023	-3.61403602709827	-82.5677445043972	-12.5512922078273	12.8955326561503	
1645000000	-13.5950005492607	-11.6547979178533	-3.63280361283368	-93.0171879478423	-3.62519253909467	-92.8345523974606	-12.4663796527214	7.05749456774471	
1647500000	-13.7580732536531	-19.357951223554	-3.63308529827847	-103.298080920308	-3.6222029880001	-103.115113587322	-12.6070572246973	1.2039186903891	
1650000000	-14.1944362719176	-26.7953059067521	-3.61678141070407	-113.622007991171	-3.60828308957356	-113.431486704307	-12.9737483392692	-4.36113392908374	
1652500000	-14.9337524095222	-33.774018879105	-3.59650067546983	-124.004020006777	-3.58564029246693	-123.814797364894	-13.5833373238952	-9.37715839532184	
1655000000	-16.0269561972016	-39.8557661067752	-3.57011463842804	-134.475163380162	-3.55820676424463	-134.289898701758	-14.4565889220078	-13.3652669350449	
1657500000	-17.5531804505785	-44.2466124210457	-3.54079956451968	-145.040441479608	-3.53118444503674	-144.844317747084	-15.6058442493351	-15.6092094085604	
1660000000	-19.6036560092646	-45.3022569171368	-3.51964903499599	-155.690117794771	-3.50870924819316	-155.490592393238	-17.0002407523401	-14.9018473213894	
1662500000	-22.1374947902985	-39.1527383367891	-3.50534668412866	-166.410857760927	-3.49567496657512	-166.207738580681	-18.4439171237992	-9.52146355516467	
1665000000	-24.198597662788	-19.8907321826388	-3.50622857531029	-177.172313709766	-3.49612500621936	-176.958754533128	-19.4188655777089	1.48786794149807	
1667500000	-23.5064136747038	5.69444383002841	-3.52036425337246	172.059402998994	-3.50990645295765	172.27093819162	-19.2683343279154	14.9893097042837	
1670000000	-20.9361340241766	19.0356418970031	-3.54865745998384	161.316565085498	-3.53957796304322	161.539263478759	-18.0800074798701	24.9683299033793	
1672500000	-18.4909126426689	21.5879301464924	-3.58886984468767	150.64091206076	-3.57870487560515	150.855689719186	-16.5511432319239	29.335936384311	
1675000000	-16.5836632381484	18.8921174327924	-3.63668345937586	140.042959542494	-3.62630820418993	140.258297153154	-15.1293094869323	29.3165050361321	
1677500000	-15.1607039091611	13.7011698631991	-3.68643561975059	129.545168208656	-3.67640652670361	129.756909112509	-13.9590893472698	26.5638120481855	
1680000000	-14.1325225174165	7.26846085620242	-3.73336926137404	119.151332875275	-3.72043329067417	119.350688384541	-13.0627257499489	22.215334216726	
1682500000	-13.4253944137801	0.151676531231508	-3.77439042402095	108.827351274403	-3.76345602740293	109.034851316955	-12.4254161625268	16.8768089485072	
1685000000	-12.9950858389293	-7.32661133146422	-3.80346249764612	98.5803625248073	-3.79229169713111	98.787763959871	-12.0255678393328	11.0237443138017	
1687500000	-12.8193861322342	-14.9696148549418	-3.81738962915113	88.360423291696	-3.80582636301077	88.5698200333485	-11.847604817164	4.86355673597603	
1690000000	-12.8855980861039	-22.6764958298304	-3.81901893682752	78.1433326863448	-3.80697316839913	78.3690611764036	-11.8887535145115	-1.39291577638574	
1692500000	-13.1979094189022	-30.2837132811274	-3.80290912762724	67.9064224062805	-3.79058546234221	68.1210657732402	-12.150927422974	-7.58746980610064	
1695000000	-13.7742428348882	-37.653840217602	-3.77553619377187	57.608736600083	-3.76359501500668	57.8251587601093	-12.6475718184522	-13.5151160095054	
1697500000	-14.653185764486	-44.5673794255433	-3.7396523484551	47.2248276871303	-3.72811522370158	47.4415322560882	-13.4079847940199	-18.893479016771	
1700000000	-15.8949052453109	-50.5652252843893	-3.6977389273386	36.7356427690273	-3.6886882537999	36.9573367379324	-14.4574059668562	-23.2226770393421	
1702500000	-17.5966547021803	-54.795072083069	-3.66076876576192	26.1536675714198	-3.64959537705892	26.3815900230866	-15.8439958849265	-25.7691457590068	
1705000000	-19.854075790827	-55.3878517157132	-3.62916045853705	15.4770776712615	-3.61946804777648	15.7047709323521	-17.5607151516833	-25.0065786058858	
1707500000	-22.6072171360735	-47.9540728356778	-3.60967887656534	4.72836823836204	-3.59788510604918	4.95719328955522	-19.4280897816628	-18.4905151650957	
1710000000	-24.6420925890081	-26.1109642914285	-3.60399827586443	-6.05978093048822	-3.58883649414519	-5.84758256992029	-20.7493534268695	-4.2745493391447	
1712500000	-23.6045088013533	-0.280779748832475	-3.6125014352337	-16.8621067222801	-3.59985361535062	-16.6292898785641	-20.501061707677	13.13812544785	
1715000000	-20.9755019722794	11.5162638876368	-3.63615985196739	-27.6321031186758	-3.62321691386995	-27.4002371587571	-18.9733924279805	24.8749731372959	
1717500000	-18.6409150786804	12.9489092345396	-3.67206568120523	-38.3312968592076	-3.65808053975374	-38.1209719146952	-17.2061684732768	29.3388669031438	
1720000000	-16.8966167684395	9.6359690313441	-3.71577548647889	-48.9452211972071	-3.70097758814592	-48.7383589982625	-15.6862912325212	29.0472117900081	
1722500000	-15.6458148206424	4.09712921241815	-3.75993769713942	-59.4785799886597	-3.7446883926867	-59.2892680279862	-14.5013943885287	26.1838082041561	
1725000000	-14.8013760127581	-2.60631394513627	-3.80157690994189	-69.9112476512178	-3.78717813452493	-69.7240191952734	-13.6396693107587	21.8695692933284	
1727500000	-14.2951108087989	-9.93643427988098	-3.83513331794005	-80.2708018545771	-3.82015666698945	-80.0770450613999	-13.0584379474289	16.8151310342056	
1730000000	-14.0904138186221	-17.5960793478779	-3.85686802654465	-90.5852976337156	-3.84392733660809	-90.3900559132959	-12.732507395704	11.4363737767769	
1732500000	-14.1791405734825	-25.4107358329852	-3.8666336375143	-100.858522793639	-3.85107114011497	-100.666080309574	-12.641639935153	6.02119911077768	
1735000000	-14.5591634348537	-33.2452025001278	-3.86056596144843	-111.166060824256	-3.84660372157187	-110.963731915567	-12.771128804216	0.840689535267435	
1737500000	-15.2679811789357	-40.9485066644842	-3.84457958942598	-121.506000686622	-3.83056096943922	-121.310251347824	-13.1204088993048	-3.87533460721779	
1740000000	-16.3630132129425	-48.2934631951723	-3.81884807686652	-131.911608558713	-3.80615711768708	-131.724863523919	-13.6853565294325	-7.76402089042049	
1742500000	-17.9726142327991	-54.8025064822747	-3.79021181521148	-142.417137449896	-3.77850214239547	-142.220760817692	-14.4517166883786	-10.3712034282385	
1745000000	-20.3083130249755	-59.3851171095259	-3.76358583042338	-153.00530377235	-3.75212558490626	-152.810437341293	-15.3870373116776	-11.0071219615367	
1747500000	-23.7944156932442	-58.6842060170068	-3.74284596722293	-163.673384705239	-3.72961840293464	-163.480952306402	-16.3817763589071	-8.88283304060566	
1750000000	-28.7382374283407	-38.9234967189048	-3.73222839450042	-174.397520943624	-3.71898578070681	-174.197093015975	-17.1996815821163	-3.48195353024869	
1752500000	-28.8310828712236	15.316265479709	-3.7362990984528	174.847823727825	-3.72235381994254	175.035858308136	-17.5187780132542	4.50929861541822	
1755000000	-23.7963139684128	36.2092371329235	-3.75339432092391	164.095449859378	-3.74055015250182	164.282052020443	-17.1592045419183	12.4440825560114	
1757500000	-20.1848913041161	37.1250426615272	-3.78291640230618	153.383784824901	-3.76916479706887	153.571986285822	-16.3017647274355	17.8366563749063	
1760000000	-17.7410209502334	32.6205881100639	-3.82484416278463	142.727570623747	-3.81100711442645	142.922250265343	-15.2757265863585	19.9446886388478	
1762500000	-16.0364511688923	26.1809869237269	-3.86708084281081	132.169643535369	-3.85407000144998	132.365862778507	-14.3115547962929	19.3411319424789	
1765000000	-14.8401949201413	18.9224118161455	-3.91228328200445	121.704418388913	-3.89844759659298	121.890141602585	-13.5096236513027	16.8138521118779	
1767500000	-14.0296744219238	11.3440645705106	-3.95084432858296	111.314563608696	-3.9381210990062	111.498264915282	-12.9081453879338	13.0432861524633	
1770000000	-13.5342007722662	3.67848269586155	-3.97889328909189	100.992260769928	-3.96714725816934	101.17776123409	-12.5164011156745	8.48195878755454	
1772500000	-13.3140625281255	-3.94402674701594	-3.99987363870305	90.7165405171435	-3.9868804984502	90.897111974489	-12.3294846142642	3.47113794847549	
1775000000	-13.3493431137396	-11.3738869888828	-4.00498102071149	80.4528254802147	-3.99223772946013	80.621705027699	-12.3465110728047	-1.72619895508678	
1777500000	-13.6398873551363	-18.4688405446616	-3.99647221133673	70.1615328460496	-3.98486440418918	70.3351396897004	-12.5747649056783	-6.91203044311666	
1780000000	-14.1989644091647	-25.0473528070176	-3.97802839296269	59.8268204089584	-3.96368497183046	59.9859833265075	-13.0256936237744	-11.819049079633	
1782500000	-15.0490113733415	-30.7581321549391	-3.95066189351703	49.4105994868538	-3.93798387649186	49.5790101969973	-13.7194027481321	-16.1188960899138	
1785000000	-16.2285749573685	-35.0097018788726	-3.92062234748624	38.9145272190992	-3.90716133152061	39.0849593067726	-14.6736828006249	-19.3033902033774	
1787500000	-17.7607724917331	-36.6748696901525	-3.89094151647201	28.3282847111036	-3.87766797803386	28.4998361183068	-15.8924515769952	-20.5767668517465	
1790000000	-19.583831219645	-33.7405945964244	-3.86916293467333	17.6641051312434	-3.85566860456159	17.8525071047487	-17.3231644226547	-18.6326502142539	
1792500000	-21.2732000252209	-23.3882431213614	-3.85444101511539	6.93727909698215	-3.84034470837727	7.11252269973841	-18.7385353896289	-11.8672938194253	
1795000000	-21.7529411817246	-6.42456681767439	-3.85396422892025	-3.82325895959917	-3.8397474677158	-3.64344215847586	-19.5665996279799	0.154099383378149	
1797500000	-20.5661378584918	8.24612336347065	-3.86702304468539	-14.5796584450729	-3.85282403369064	-14.4006656631016	-19.2518578795227	13.6007598003545	
1800000000	-18.736414839951	14.4123125982424	-3.90445156543343	-25.1787747727635	-3.89357269683254	-25.0138559504893	-17.9913157720422	23.0601954434349	
1802500000	-17.035376937792	15.1560924000625	-3.94000777017747	-35.8329850215684	-3.92791240220394	-35.6598193077986	-16.548496114493	27.0846043979786	
1805000000	-15.6657571751425	12.3767455098897	-3.97737434286389	-46.4148175680458	-3.96724859157752	-46.2464738293048	-15.2433754477616	27.2335539817103	
1807500000	-14.6436763931882	7.63438546528733	-4.01860175629895	-56.9180564172729	-4.00735246253793	-56.7509900335232	-14.1873891570358	24.9740228800764	
1810000000	-13.9389016013686	1.80337031671222	-4.0556685237703	-67.3339019195252	-4.04342571417375	-67.1791617312441	-13.3939869118103	21.2954656039073	
1812500000	-13.5176229737339	-4.65263594704414	-4.08514237728569	-77.7128018257999	-4.0738763638853	-77.5429560557291	-12.8492786299053	16.8168516938971	
1815000000	-13.3637023547133	-11.3978876186417	-4.10415720916621	-88.038687048997	-4.09258808981068	-87.8634519957769	-12.5385788086904	11.9608076836769	
1817500000	-13.4720729718492	-18.2590974333954	-4.1107449652002	-98.3500600343107	-4.09931032531941	-98.1743210311952	-12.447951140153	7.02649343811479	
1820000000	-13.8524226531229	-24.9961083898371	-4.1061991259598	-108.684970186584	-4.09352715963232	-108.489546466953	-12.571007446716	2.26641286295698	
1822500000	-14.5358230196649	-31.3799792308619	-4.09023595413951	-119.054382421123	-4.07764822137243	-118.873727982058	-12.9083172733691	-2.04980513600138	
1825000000	-15.5719286189516	-36.9951072294241	-4.06694376795754	-129.49741230781	-4.0552195584256	-129.313516547151	-13.4550486060855	-5.541521970797	
1827500000	-17.0415240553702	-41.0843286856109	-4.04208209263262	-140.021985318774	-4.0300864005225	-139.840688320684	-14.1955960612265	-7.7239739566662	
1830000000	-19.0477742153258	-42.0361419738493	-4.01793990109913	-150.639692944881	-4.00861974288421	-150.468735528317	-15.0896624101942	-7.90766278061843	
1832500000	-21.5882665818085	-36.1480271627161	-4.00066422995457	-161.328983567467	-3.98946404449895	-161.147488393462	-16.0094032954417	-5.34432775674085	
1835000000	-23.8147553976752	-16.7806209796084	-3.99431187923161	-172.081186628765	-3.9821654550149	-171.899764371391	-16.7189995223839	0.391495575971498	
1837500000	-23.2446335629212	10.6538842956137	-4.00157711742692	177.144839332372	-3.98949056163435	177.319646160085	-16.9109900243186	8.28261211618126	
1840000000	-20.5578119616175	25.6427171073103	-4.02258174860907	166.382624715178	-4.00954705469435	166.557466442089	-16.4609346141829	15.77830948544	
1842500000	-17.96065244602	28.9487985881501	-4.06088943206625	155.649335926822	-4.0481841550337	155.826912777763	-15.5622873342613	20.6816363422602	
1845000000	-15.9396215036019	26.7208245745014	-4.10740414365944	145.003174823274	-4.09470722174423	145.177697887268	-14.5261927944424	22.4461219719583	
1847500000	-14.4201776638403	21.9386514169678	-4.15997920012201	134.446128843071	-4.14774521132079	134.621071931131	-13.5569238069834	21.626734666841	
1850000000	-13.3023285647169	15.8773669028298	-4.21476113904223	123.994776297695	-4.20195604098124	124.172919953507	-12.7508282742147	18.974847385689	
1852500000	-12.5097001167422	9.16560915023554	-4.26232531182314	113.64149169595	-4.24972462191526	113.816895610963	-12.137449205906	15.1170834352239	
1855000000	-11.9893817825744	2.12971035553549	-4.3021730984273	103.375102362038	-4.28923690640996	103.545862836184	-11.7227140816252	10.5008329428047	
1857500000	-11.7070679769668	-5.03246082592006	-4.32780222070538	93.1602728936582	-4.31532055668607	93.3350696316634	-11.504326304886	5.42448254713841	
1860000000	-11.6483395424502	-12.1775829850577	-4.33885542354936	82.9708358320322	-4.32701623360506	83.1404737582272	-11.4824863386651	0.143851573443993	
1862500000	-11.807201847393	-19.1800340049651	-4.33212843722557	72.77041557963	-4.31940874905354	72.9418306340341	-11.6552409547401	-5.16454618957253	
1865000000	-12.1877701117216	-25.8802965441215	-4.31217660953028	62.521850053311	-4.29936342366358	62.6933791238165	-12.0390268254305	-10.2678819059233	
1867500000	-12.8066058252193	-32.0931819385087	-4.28014738183002	52.1942589393471	-4.26645095937495	52.3707809225172	-12.6444512172465	-14.9218503598151	
1870000000	-13.6849554809923	-37.4789370864416	-4.24031992626684	41.7692151179665	-4.22564781898232	41.946263811875	-13.4927921686983	-18.738627496976	
1872500000	-14.8509456942053	-41.4334882332892	-4.20142180010384	31.2497006774277	-4.18754748027618	31.4271033014999	-14.5988639011375	-21.0378395106283	
1875000000	-16.3154926256389	-42.9681630143952	-4.16491616058557	20.6191173389571	-4.14960287982195	20.804055066591	-15.9494079576775	-20.8790894517886	
1877500000	-17.988888630582	-40.424334762389	-4.13656079201992	9.90432993849189	-4.12204653496536	10.0793815788542	-17.4102421477722	-16.7254583973928	
1880000000	-19.5015317781338	-31.8216875216133	-4.12397406120652	-0.865679906446277	-4.10895620058728	-0.695379502662399	-18.594382830128	-7.35654542013978	
1882500000	-20.0705536928051	-17.8933111068384	-4.12415605395555	-11.6824524531665	-4.10932254501092	-11.5052264730799	-18.8863503724119	5.69620359253348	
1885000000	-19.294759159869	-5.04363920656281	-4.14103422257078	-22.476422823112	-4.12630902920827	-22.3034829139159	-18.0916199406294	17.1508458660084	
1887500000	-17.8148087322046	1.70760221612095	-4.17117557196153	-33.2273439126981	-4.15668367918856	-33.0457223660489	-16.7509586042303	23.5640497873059	
1890000000	-16.3309251899302	2.9269603210198	-4.21171226787406	-43.9051098196815	-4.19697601264198	-43.7096499120339	-15.4001806616435	25.3588957954609	
1892500000	-15.1058228036922	0.647679351325831	-4.25639446620262	-54.4715824015478	-4.241937844275	-54.295695877895	-14.2583820652736	24.0561587348847	
1895000000	-14.1859982182296	-3.67523754690693	-4.29980009064094	-64.9539608328041	-4.28625634128104	-64.7736083148789	-13.3764851287668	20.9564599995627	
1897500000	-13.5545875132671	-9.19014636877673	-4.33888390917547	-75.3508226059709	-4.32508310108513	-75.1702379674464	-12.7489982574344	16.8069266268368	
1900000000	-13.1950192978805	-15.4052586825743	-4.36707123135926	-85.6817964385484	-4.35350765049323	-85.5201632744635	-12.362242516196	12.0729184143495	
1902500000	-13.0874720772824	-21.9860880543683	-4.38399457598222	-95.9802943710635	-4.37065490766494	-95.8027834945279	-12.1973030144851	7.12267015017609	
1905000000	-13.231607910635	-28.7459658548556	-4.38729649198216	-106.271945003646	-4.37388335852824	-106.099941798535	-12.2455598046744	2.18554320079543	
1907500000	-13.6391999540467	-35.4860961384463	-4.37844124464722	-116.591197002289	-4.36448010018248	-116.423294610977	-12.5063015204752	-2.49797317970236	
1910000000	-14.3323232581396	-41.9687193947136	-4.36091410133633	-126.952995112896	-4.3454816297667	-126.781811984858	-12.9763631674828	-6.58105967695256	
1912500000	-15.366546427776	-47.8227917055309	-4.33336194818558	-137.423641224013	-4.31687701900356	-137.262442904293	-13.6630004368018	-9.74962776388101	
1915000000	-16.8051180968006	-52.4412196379392	-4.30361245243304	-147.973343761132	-4.29044963032247	-147.808402382982	-14.5466177003654	-11.3771675205885	
1917500000	-18.7585592781421	-54.4968793793191	-4.28034657761448	-158.613159018024	-4.2662994733998	-158.448997914986	-15.5755315854184	-10.6809239868234	
1920000000	-21.2860845468672	-50.9485991398547	-4.26326391442997	-169.354911228478	-4.25015299741327	-169.175759381845	-16.6010538575001	-6.83828017553782	
1922500000	-23.8959766870065	-35.6847769411781	-4.25863928646971	179.893107245258	-4.24355092695584	-179.942815506943	-17.3071129861436	0.399123335900481	
1925000000	-24.3278746249797	-8.0510638021478	-4.26672745483393	169.094506679777	-4.25236465614079	169.258790698222	-17.3816465137407	9.49823097239473	
1927500000	-22.0021324568307	10.9720966362967	-4.28942789914679	158.310786910351	-4.2760927839422	158.470770151015	-16.7693119690111	17.3746371637785	
1930000000	-19.3977822690242	16.5883017263607	-4.32517479208025	147.580469958056	-4.31230442417448	147.72281998376	-15.771357691635	21.9916268400116	
1932500000	-17.3370415192979	15.410045826437	-4.3717769536305	136.906605022885	-4.35795408695195	137.06958536108	-14.7092537230116	23.3881381031861	
1935000000	-15.8207598751478	11.1125971257419	-4.42249818475747	126.331385708417	-4.40933933160209	126.49054718006	-13.768541944139	22.2795612663468	
1937500000	-14.7352751691309	5.29808668099176	-4.47288754983233	115.851964220095	-4.46074867530303	116.006344226358	-13.0147378022481	19.5374423257753	
1940000000	-14.0003335007584	-1.32039329634305	-4.51832743349111	105.46893935437	-4.5032454537065	105.631420618235	-12.4650633447751	15.7963186791485	
1942500000	-13.5654654362472	-8.32224952067073	-4.55506276780751	95.1394415636359	-4.54093247556491	95.2912155753406	-12.1272347252853	11.4328752268486	
1945000000	-13.4007207915503	-15.4729621618059	-4.57914539729562	84.8528900746928	-4.56447351939861	85.010948341499	-11.9883435747921	6.7979465392861	
1947500000	-13.4933620476963	-22.6293945280999	-4.58920081246102	74.5885126822156	-4.57527903765289	74.7443774810254	-12.0427854496955	2.14829397637517	
1950000000	-13.848770093001	-29.5955853382731	-4.58802429290146	64.2914838335643	-4.57515067500422	64.4381240776191	-12.2986341698103	-2.2584832202959	
1952500000	-14.4845368647342	-36.2174001289318	-4.57272998133925	53.9488119167095	-4.55895589285718	54.1135325315033	-12.7491768341298	-6.19591199283279	
1955000000	-15.4422078861284	-42.0668372489734	-4.55093533312089	43.5345976409201	-4.53814171989435	43.6921355161803	-13.4049477684901	-9.23004454347542	
1957500000	-16.7782715205435	-46.559556090929	-4.52622693573707	33.0229623588115	-4.51355716500267	33.1849222716161	-14.2533996013395	-10.8475458660192	
1960000000	-18.5657504110784	-48.4517709171385	-4.50225515970403	22.4251171681913	-4.48954414446408	22.5836120396357	-15.2421027844547	-10.3288816909497	
1962500000	-20.7991410615239	-45.0243983145684	-4.48812631872125	11.738507696279	-4.47523456609291	11.9006374643567	-16.2329320483042	-6.70351361438413	
1965000000	-22.9927200789883	-31.6560313625677	-4.48420046288132	0.990809254936019	-4.47148716623907	1.15284796257068	-16.9419634565014	0.235999880917507	
1967500000	-23.4293550128416	-8.54414197831952	-4.49318031191318	-9.7901259857503	-4.48101059738747	-9.62518074890906	-17.0437372282195	9.13301100359559	
1970000000	-21.5593419631838	8.9209732633779	-4.51835673452024	-20.5675137498604	-4.50536527358583	-20.3979160506898	-16.4545615628132	17.1221035150925	
1972500000	-19.1910352028811	15.1249142932065	-4.55890392727853	-31.3061833546146	-4.54647657096364	-31.1432235712436	-15.4568123318335	21.9834165831891	
1975000000	-17.2077826231418	14.5751270848722	-4.6111945814672	-41.9705506673891	-4.59838421298029	-41.8055344883019	-14.3610990037364	23.5758490713317	
1977500000	-15.6938831974876	10.6970568075515	-4.6700872631978	-52.5441943588569	-4.65710374516954	-52.3777121880521	-13.3623031404763	22.6127633067699	
1980000000	-14.5760859707975	5.14124582461982	-4.7335823122903	-63.0063888805694	-4.72127098157338	-62.8434994633496	-12.5396012498975	19.9162934352345	
1982500000	-13.7892251788669	-1.33080499762203	-4.79024310425667	-73.3770412807336	-4.77643647252767	-73.2056451745044	-11.9065791404892	16.0966591393796	
1985000000	-13.2848273554554	-8.26487565010023	-4.83891566252413	-83.6490228993577	-4.82778507928755	-83.4882360362009	-11.4682104384844	11.5758834520488	
1987500000	-13.0276544957838	-15.4136322976311	-4.87841559575002	-93.8544876859866	-4.86599301306124	-93.6906680010963	-11.2133376307904	6.65055006775192	
1990000000	-13.005592685414	-22.6548775207775	-4.90049576317062	-104.035351428077	-4.88788818196684	-103.860822052813	-11.1366547727325	1.52360710364789	
1992500000	-13.206110596986	-29.8284155291538	-4.91004967094565	-114.174944712607	-4.89708375800129	-114.016250726751	-11.235628268776	-3.580722570792	
1995000000	-13.6440326068442	-36.8074174788719	-4.90256685368144	-124.362306320115	-4.89120262653455	-124.192087089671	-11.5088766367955	-8.54202735080824	
1997500000	-14.3323604572498	-43.4062603362973	-4.8833449936427	-134.58905000204	-4.87120787085083	-134.422132559199	-11.9646196692995	-13.1788832720764	
2000000000	-15.3041843932855	-49.3341826424707	-4.85368737552718	-144.884979060654	-4.84221327818377	-144.735069444999	-12.6067265788495	-17.1689209282768	
2002500000	-16.6310303596872	-53.9991348925009	-4.81980530770775	-155.299009224374	-4.8087554635021	-155.135540711962	-13.4568081698663	-20.199352544956	
2005000000	-18.3469936744495	-56.3829857649363	-4.7861725604461	-165.792357251593	-4.77576355924029	-165.63607388459	-14.4922474947573	-21.6532660000336	
2007500000	-20.4700254878897	-54.3413606945046	-4.75584184004344	-176.383218534592	-4.74563148075708	-176.229074674783	-15.6622928612267	-20.7808558199774	
2010000000	-22.6633612171324	-43.9929592742676	-4.7361206899711	172.949562551193	-4.72553431411511	173.115541309014	-16.8339922419154	-16.6255087719115	
2012500000	-23.6491401089844	-24.0602668074934	-4.72708026623205	162.231884662047	-4.71721666477389	162.394325679522	-17.6802356817648	-8.94738831792546	
2015000000	-22.4239672047748	-5.56829732725602	-4.73376071846349	151.48592323244	-4.72244120117023	151.655416267789	-17.867965660737	0.764005650446939	
2017500000	-20.2994490631123	2.68591522275659	-4.75111888055443	140.763998556427	-4.74103787220252	140.935560362557	-17.3332645313669	9.31183206897476	
2020000000	-18.3850691043708	3.48134409975408	-4.78215339033065	130.067285705445	-4.77142260531194	130.245360392751	-16.3856549385098	14.5400649512964	
2022500000	-16.8861594607537	0.340151911122954	-4.82166583150299	119.464060387814	-4.81043503187845	119.632711860999	-15.3554892259682	16.4867095934372	
2025000000	-15.7918369718415	-4.83634238119125	-4.86488213486479	108.924036007405	-4.85490517425789	109.091517340243	-14.4408881105477	15.8515251349521	
2027500000	-15.0363899485678	-11.1401773539063	-4.90888345657128	98.458414128414	-4.89861267891425	98.6322705265739	-13.7019294179881	13.6099007884052	
2030000000	-14.5707014063727	-18.0868120051022	-4.94872944539519	88.0835348765771	-4.93823886504611	88.255539840314	-13.1591115893229	10.3118811204619	
2032500000	-14.3724757157425	-25.3432042409196	-4.98409699923724	77.7605737696774	-4.97377565639333	77.9340332579279	-12.8130974423981	6.43715603863918	
2035000000	-14.4179372324536	-32.7751873201871	-5.0078632579654	67.4857346056882	-4.99892051331786	67.6621418307858	-12.6444403186045	2.28295580303594	
2037500000	-14.7111529519635	-40.265460625326	-5.02113460108469	57.2341874921867	-5.01096008053386	57.4046065922172	-12.6508170474804	-1.92816814322296	
2040000000	-15.2583461199036	-47.609967052081	-5.02367721741422	46.9747073769912	-5.01306149779256	47.1481018202172	-12.8233546944978	-5.95081215361948	
2042500000	-16.097341316644	-54.7146647315958	-5.01466986089842	36.6925880518497	-5.00522116863152	36.8635434605298	-13.1489620410352	-9.62594548522661	
2045000000	-17.277190628069	-61.2412116146762	-5.00030221174572	26.3645217848921	-4.99099337814089	26.534917444702	-13.6263555688619	-12.6583488073715	
2047500000	-18.8809677228731	-66.6492377092297	-4.9799986255386	15.9769365807626	-4.97146669876418	16.1482711509128	-14.2463561281083	-14.7487890448224	
2050000000	-21.0593833284378	-69.8555681124062	-4.95792014429581	5.52481391554138	-4.95090315018605	5.6964494690354	-14.9578463595609	-15.5758245940884	
2052500000	-23.9799475011797	-67.7319984238977	-4.93832059258895	-4.9867951876632	-4.93063213720506	-4.80691775252594	-15.7056900969428	-14.7310970546446	
2055000000	-27.411438669105	-52.3058489372496	-4.92247507937943	-15.5526057389534	-4.91845964408864	-15.374739560743	-16.3843201415982	-12.1058896566409	
2057500000	-28.4040568125089	-17.8514865879663	-4.91546428515124	-26.1554757585319	-4.90963889471101	-25.9756073196621	-16.8457480214533	-7.86344952594489	
2060000000	-25.4999812429135	5.26458861856649	-4.91503379265614	-36.7729720440149	-4.90788446300389	-36.5953666701782	-16.9869138182409	-2.91707097255729	
2062500000	-22.5050048122831	10.8553241392636	-4.92531738251198	-47.3826298803106	-4.91794994027635	-47.2041317193215	-16.8081499651866	1.5987142652745	
2065000000	-20.3024034608396	8.99070308925155	-4.93830627686135	-57.9701917372525	-4.93280573328655	-57.7825893843703	-16.3988901841172	4.75990254158987	
2067500000	-18.7438327229171	4.07050386501957	-4.95858531267473	-68.5202671191588	-4.95167888818845	-68.3280275310393	-15.9004605679163	6.27131334302138	
2070000000	-17.6761148736742	-2.2622589372046	-4.98001016668291	-79.0239291938687	-4.97278698824573	-78.83062228343	-15.427745800298	6.31229740378785	
2072500000	-17.0044184157649	-9.29430961323586	-4.99962715960605	-89.4963607654839	-4.99288278906512	-89.2962137639032	-15.0497292938948	5.16486490696098	
2075000000	-16.6637609473977	-16.6550789122799	-5.01654438133008	-99.9326392191755	-5.01090381316482	-99.7244271075841	-14.8022171012094	3.30561650139557	
2077500000	-16.6297515869442	-24.130802829801	-5.02797721064568	-110.338538331081	-5.02313888636107	-110.137734850352	-14.7014315513016	1.10421650714812	
2080000000	-16.9000166774801	-31.4857319976225	-5.03477159644172	-120.742825400453	-5.02934049557762	-120.538504920216	-14.7462854662836	-1.14666184228806	
2082500000	-17.4756151910663	-38.5296988762015	-5.03545775022702	-131.154063948411	-5.029949892219	-130.947615511126	-14.9297716158886	-3.03877842072311	
2085000000	-18.4083738406504	-44.898833989834	-5.03186853149852	-141.595164599198	-5.02700543869642	-141.383299190502	-15.2415545662333	-4.35018256846666	
2087500000	-19.7431961320836	-50.0798890578966	-5.02625627006169	-152.067205288882	-5.02078467947555	-151.858425163023	-15.6347743584139	-4.72567748357815	
2090000000	-21.5902089894736	-52.8228104473241	-5.01924284731701	-162.579310338307	-5.01357308549088	-162.372295781535	-16.0545445083865	-3.84698692965264	
2092500000	-24.0280833763982	-50.4251499316157	-5.01375894191717	-173.116801387978	-5.01003787035758	-172.906316237509	-16.4062210830395	-1.64542422786021	
2095000000	-26.6860411513437	-36.9696900292686	-5.01320034877048	176.31262431109	-5.00901793280199	176.532164179997	-16.586230208308	1.6926203123798	
2097500000	-27.4901672392069	-9.92417590717923	-5.01935285627436	165.732339381352	-5.01496246927197	165.95087037179	-16.5187618261723	5.44354520513373	
2100000000	-25.2791681525722	11.0461508240285	-5.03058380567763	155.1531450767	-5.028115266132	155.372302669673	-16.1969728906767	8.76143708617448	
2102500000	-22.559643810511	17.8568376403615	-5.04789231000805	144.582262116583	-5.04527386180136	144.816329701898	-15.6845633826402	10.8738223567783	
2105000000	-20.3593181753866	17.1386129883793	-5.07019111869327	134.063475806619	-5.06686680518368	134.286544828516	-15.1037654386505	11.5249883106585	
2107500000	-18.7198634129873	12.9561448462168	-5.09504361524556	123.574322965437	-5.09244296802276	123.813414022006	-14.5345387132114	10.8098918263949	
2110000000	-17.5286592016738	7.03145436473536	-5.11920078663014	113.125032988253	-5.11713524637835	113.368605034029	-14.045244037024	8.93529845568344	
2112500000	-16.7028107963196	0.238162253516321	-5.14020264091242	102.724531004665	-5.13850741693	102.973232776503	-13.6672750981034	6.21080960367136	
2115000000	-16.1992379551771	-6.97741166658258	-5.15747803226447	92.3446840587264	-5.15534525836391	92.6060414160556	-13.4300121174954	2.92514352440122	
2117500000	-15.9726885793146	-14.4087509257494	-5.16774036911052	81.9965438535764	-5.16454387161025	82.2577592335625	-13.3362599005921	-0.68911739395061	
2120000000	-16.0152517985639	-21.8876638975541	-5.17078057217619	71.6507892184495	-5.16900105005268	71.9183247285854	-13.3940027729689	-4.36649859354013	
2122500000	-16.3307362715157	-29.1902126704202	-5.16672608603714	61.2931319612811	-5.16392242741378	61.5579553989577	-13.6095672862472	-7.87344652562303	
2125000000	-16.9380226299699	-36.134090395712	-5.15577626071728	50.9051934080013	-5.15293999928694	51.1714540962848	-13.9821084921704	-10.9568828115006	
2127500000	-17.8698455503905	-42.3351068592409	-5.14092865813322	40.4739965003646	-5.13843955741522	40.7453187885317	-14.5011586631042	-13.2765998405671	
2130000000	-19.1908432735068	-47.1858291951478	-5.12211214729383	29.9939307130912	-5.12055065198669	30.2671525713114	-15.1436388034742	-14.428997935149	
2132500000	-20.9782950174918	-49.492928608633	-5.10716102557474	19.4631143378897	-5.10527475370865	19.736270681276	-15.8592417548535	-13.9751211691733	
2135000000	-23.2551148690327	-46.5809288195359	-5.09533235961672	8.89334470739747	-5.09093116479603	9.16515328733297	-16.5370281227868	-11.5225113993988	
2137500000	-25.5875407699196	-33.4443729879247	-5.08900892575795	-1.72164056210705	-5.08545791721878	-1.44123444904778	-17.0209779443584	-7.12926338591919	
2140000000	-26.1534654624192	-9.23034763732293	-5.09062948282689	-12.3544433892085	-5.0860308047807	-12.0707799146454	-17.1474154942198	-1.57181659976193	
2142500000	-24.1872993843837	9.52978083306466	-5.099720655231	-22.9940820928401	-5.0957899958784	-22.7014671175688	-16.8628638384078	3.72049155999725	
2145000000	-21.6941569405363	16.1758196183894	-5.1173670818242	-33.6118188926748	-5.11262062736724	-33.3119088438646	-16.2622212512443	7.44355657993033	
2147500000	-19.6129243657184	15.6883510284168	-5.14090444856813	-44.19275961434	-5.13626482201633	-43.8773819347107	-15.5244013954354	9.08647498202829	
2150000000	-18.0198045690058	11.8204463318053	-5.16882132191939	-54.7130851688661	-5.16514913886578	-54.401037642457	-14.7991950191295	8.7627969191943	
2152500000	-16.851037373172	6.23199037734712	-5.19848742012838	-65.1869821478282	-5.19344905599504	-64.8680406300664	-14.1661969221637	6.92257251624502	
2155000000	-16.0181294518126	-0.303159919646529	-5.22528410732364	-75.5902637976885	-5.22022248135489	-75.2788473090135	-13.6732098801321	3.99478542182104	
2157500000	-15.4842840817559	-7.29215274194209	-5.24655072149146	-85.9575632323162	-5.2408247627354	-85.6462988118713	-13.3341738237554	0.309873054260719	
2160000000	-15.2118794050971	-14.51469349584	-5.26013099241601	-96.291935733274	-5.25473889210531	-95.9823605716288	-13.1610270562119	-3.80938182900018	
2162500000	-15.1874857224114	-21.7361116042881	-5.26640945478505	-106.597697281703	-5.25936775451467	-106.29059825239	-13.1562526216437	-8.10337883295534	
2165000000	-15.4145690783382	-28.7834740180915	-5.26185651816518	-116.912321334402	-5.25368046485783	-116.607453608634	-13.3240394396185	-12.3637508928796	
2167500000	-15.8902722880907	-35.5111097481174	-5.24793433231632	-127.259329978782	-5.24024108749623	-126.95220847724	-13.6698261997512	-16.3684345509906	
2170000000	-16.654395087794	-41.5974140739863	-5.22777340430764	-137.650185994886	-5.21840545247603	-137.341908287299	-14.1934074571097	-19.8058795897921	
2172500000	-17.732990640349	-46.5526690715832	-5.2036037991291	-148.107011280946	-5.19417636507231	-147.79813694558	-14.8939226450889	-22.3071030892866	
2175000000	-19.1784047872551	-49.5511982039026	-5.17664263931508	-158.633454759222	-5.16827338493996	-158.320162606217	-15.7416155394063	-23.3700061660862	
2177500000	-20.9976713061319	-48.9229280851045	-5.15345987147836	-169.223103538306	-5.1451699277379	-168.914263712138	-16.688245525248	-22.330532642571	
2180000000	-22.9922690700347	-41.6518695967525	-5.13680097278999	-179.872506134829	-5.12851946433115	-179.561260181114	-17.58817607428	-18.5749677125811	
2182500000	-24.2841652335758	-25.340295519693	-5.12859631983048	169.437390453246	-5.12063807371723	169.747701884184	-18.2001133052478	-12.0544720523919	
2185000000	-23.6621164555711	-6.26732438718235	-5.13086260760609	158.740250903488	-5.1228436739903	159.053406618833	-18.2745381054945	-4.09480179626794	
2187500000	-21.7265096696757	4.87298503137378	-5.14390519723572	148.041149602465	-5.13496981911628	148.359826985664	-17.7852672113284	2.86641140131588	
2190000000	-19.7070339243336	7.93391340073995	-5.16583233766568	137.374790999553	-5.15761570572291	137.700892717505	-16.9404941258929	7.27228373130081	
2192500000	-18.0355333081684	6.34942891419934	-5.19556130891699	126.764367379185	-5.18748576521199	127.101714927393	-16.008151103389	8.89048677081746	
2195000000	-16.7400452232204	2.22983141797631	-5.22990019259474	116.224078040681	-5.22071970497618	116.55907935648	-15.1454052186398	8.27677753472189	
2197500000	-15.7883733501605	-3.2336064054864	-5.26388850562079	105.744789812649	-5.2542773269901	106.089906572783	-14.4321998168428	6.07325279512018	
2200000000	-15.1297734005709	-9.40241539874659	-5.29380693300905	95.3345563241323	-5.28472201131783	95.6879500428326	-13.8907057457706	2.83037444025082	
2202500000	-14.7264262953881	-15.9443000659042	-5.31841371033166	84.9803190581994	-5.3081897509272	85.3278964700012	-13.5294711727133	-1.05518050145599	
2205000000	-14.5626589979918	-22.6131263211208	-5.33483743153956	74.6535156438763	-5.32342267436337	75.0056930326984	-13.3415658242621	-5.26801351961675	
2207500000	-14.6261296139156	-29.2090691719847	-5.33976345348105	64.3360211683301	-5.32924646327114	64.686163060973	-13.3294710837732	-9.57731175447657	
2210000000	-14.91988367986	-35.5647677070089	-5.33557284393952	54.0014465207959	-5.32582177670658	54.3593070718614	-13.4888848605634	-13.7331415468037	
2212500000	-15.4558345582888	-41.4637551628623	-5.32433664915955	43.6305620529114	-5.31414818690434	43.9922696800826	-13.8125225930681	-17.4853653924735	
2215000000	-16.2483215812564	-46.5339252960712	-5.30770320166745	33.2088975284992	-5.29671575296424	33.5757204818674	-14.3009170866352	-20.5412226973918	
2217500000	-17.3217290215954	-50.1693045729336	-5.28548436650902	22.7367440879576	-5.27515959933553	23.1000096949444	-14.9342387975514	-22.5832247855446	
2220000000	-18.6877121075067	-51.4796349243489	-5.26507702170637	12.1944683549708	-5.25434661086676	12.565234623976	-15.6752240042077	-23.1294777706804	
2222500000	-20.2712140238278	-48.7393849642906	-5.24672100648168	1.60543549386897	-5.23781309882761	1.97798011820224	-16.4434289577904	-21.6789727889179	
2225000000	-21.7243265861323	-39.9962389663337	-5.23667415506036	-9.03630011889599	-5.22803305102719	-8.65153754694457	-17.0883428280194	-18.0241595952176	
2227500000	-22.275782434569	-25.6615459307451	-5.23479147374258	-19.6991984027913	-5.2264309931857	-19.3210523550427	-17.4238247414099	-12.6302722310955	
2230000000	-21.446966735786	-11.9188941445989	-5.24130596191412	-30.3685131583456	-5.23358876257237	-29.9863428457952	-17.3238192245971	-6.75548684217671	
2232500000	-19.8546802351428	-4.21281161972951	-5.25788253466671	-41.0200035499925	-5.24983079788926	-40.6451352932242	-16.8387962731337	-2.11424737371925	
2235000000	-18.2285909215078	-2.12445680752775	-5.28260907915791	-51.6408408515249	-5.27368582356299	-51.2629610479925	-16.1349075344622	0.456918199899575	
2237500000	-16.8322807488919	-3.67283071804282	-5.31070039551989	-62.2008238595444	-5.30146271839946	-61.8277837298963	-15.3900435640315	0.915942139950476	
2240000000	-15.7262011945845	-7.28540419484322	-5.3403836925356	-72.7115639093599	-5.33116795863943	-72.3377180049297	-14.7194542145499	-0.410100697681878	
2242500000	-14.8978321549063	-12.1368261498972	-5.36795694127179	-83.1650672591797	-5.3596587175853	-82.7862817581613	-14.1798989455267	-3.02181074793623	
2245000000	-14.326174099859	-17.6271018079678	-5.39253041431926	-93.569074456743	-5.38284706475747	-93.1942522256625	-13.799908536854	-6.47506039572986	
2247500000	-13.9787261202399	-23.4226886054666	-5.40883573369515	-103.935357696092	-5.39982882055829	-103.561769910672	-13.5950289791284	-10.4817432611135	
2250000000	-13.8489955106948	-29.2684798045222	-5.41930919194967	-114.281083268331	-5.40922844833008	-113.916567504842	-13.5688417223473	-14.7383855451114	
2252500000	-13.9205956949581	-34.9558133220032	-5.41729360970793	-124.638906065942	-5.40869418528241	-124.260415520587	-13.7208402997164	-18.9549347310117	
2255000000	-14.1945868308678	-40.2276053341295	-5.40930572699103	-135.009959177361	-5.40082003910526	-134.632618767887	-14.0625731928479	-22.9131473923835	
2257500000	-14.6732952054162	-44.807316442272	-5.39708822394125	-145.416483264702	-5.3865820558741	-145.050041796546	-14.5952116715171	-26.269527005468	
2260000000	-15.3440841505026	-48.27775198703	-5.37795100320275	-155.88460516245	-5.37025671120312	-155.518340017707	-15.3169875279073	-28.6103461237439	
2262500000	-16.188720775659	-50.097215382091	-5.36061312609437	-166.40739505496	-5.35282349194314	-166.04690989181	-16.2036935146097	-29.3677630941794	
2265000000	-17.1324500426331	-49.5763597212779	-5.34589253894555	-176.995641947083	-5.33762259002889	-176.632496295035	-17.1754306764674	-27.8141345250848	
2267500000	-18.0059872697816	-46.0190614407797	-5.33658022713771	172.378969617876	-5.32939681559755	172.740005850197	-18.0774546723993	-23.2895166386011	
2270000000	-18.53316983012	-39.5273535956796	-5.33601435874638	161.724610947563	-5.32861467537545	162.083040710889	-18.6170183108473	-15.963111248045	
2272500000	-18.4591836412451	-31.8854966706474	-5.34424806943425	151.04994686624	-5.33728503265897	151.416539889711	-18.5500387859771	-7.56099279387614	
2275000000	-17.797395166303	-25.6870899885967	-5.36109692550619	140.402500604206	-5.35585822304431	140.768945368055	-17.9037059061307	-0.675236734089394	
2277500000	-16.8204136590311	-22.4233286452529	-5.38709793718746	129.780137044442	-5.38097752805357	130.156329227006	-16.9595342578953	3.18668237496572	
2280000000	-15.7982731966958	-22.0747723243442	-5.41760855182622	119.214795339459	-5.41242622421353	119.590703531878	-15.9822123449809	4.12856797404317	
2282500000	-14.8767318596568	-23.9639274247431	-5.44992001340239	108.714397723857	-5.4437388737477	109.084989125573	-15.1208663488125	2.90854473947062	
2285000000	-14.1259657569997	-27.3720443034413	-5.48111955030445	98.2631367292421	-5.4757220111331	98.6516474599989	-14.4379721396545	0.182370465098257	
2287500000	-13.5643977927929	-31.7737154728489	-5.50638123788606	87.882644376905	-5.50061800257863	88.2625666770479	-13.9479689771357	-3.50418822160661	
2290000000	-13.1976841672986	-36.7944367133789	-5.52622729444983	77.5319902665402	-5.51878015034491	77.9148143269849	-13.6595981191795	-7.74874468421343	
2292500000	-13.017806794032	-42.1001214481192	-5.53558846083859	67.2064344609084	-5.52768818570691	67.596816788817	-13.5731366156583	-12.2810139110724	
2295000000	-13.0261413190698	-47.5107514952826	-5.53420636457397	56.8859479614422	-5.52801870240287	57.2688569487944	-13.6915332214952	-16.7729833438418	
2297500000	-13.2213165696251	-52.7700577670164	-5.52445372090703	46.5269620867612	-5.51824971223004	46.9104244665036	-14.0207711427681	-21.0130992621422	
2300000000	-13.6124625143897	-57.6190967338036	-5.50791109491296	36.1268310243281	-5.5020818673929	36.5121492451034	-14.564536411091	-24.6196914977147	
2302500000	-14.2005126020503	-61.7560331574726	-5.48732764341703	25.6612122016764	-5.48087486093941	26.0409990868334	-15.332106895719	-27.148034139555	
2305000000	-14.9869320577387	-64.7208980378015	-5.46602135131579	15.1277301408793	-5.45937302743296	15.5089155721972	-16.3098697654772	-27.86857888619	
2307500000	-15.9289916572927	-65.8669127087845	-5.44843207800352	4.51547178682156	-5.44058239113908	4.9002152832327	-17.4315463284534	-25.8483538167888	
2310000000	-16.9462366371129	-64.4062869263824	-5.43698765557387	-6.14874108491691	-5.42917893375713	-5.77260724614463	-18.4831936321885	-19.9657766592556	
2312500000	-17.8286552926866	-59.7223607158385	-5.43652693682057	-16.8582306388777	-5.42776427050965	-16.4848141500865	-19.0615921744276	-10.1900184107173	
2315000000	-18.2550097429828	-52.2678054769382	-5.44614511806978	-27.5864544043397	-5.43749381612632	-27.2076247126886	-18.7872777765324	0.798740172293217	
2317500000	-18.0090872228172	-44.3649501234967	-5.46972770642733	-38.301775320353	-5.46164946333509	-37.9296600931443	-17.777590658144	9.16840577389774	
2320000000	-17.2080195622084	-38.6733282728367	-5.50449629726188	-48.9855530831791	-5.49457306921751	-48.5989742528726	-16.4652361798786	13.3872506122093	
2322500000	-16.1688775609454	-36.2107432906773	-5.54715151743174	-59.5958924811353	-5.53883561132781	-59.2158872735784	-15.1916288401615	14.0810608303317	
2325000000	-15.1491000315636	-36.6959776750774	-5.59634731204956	-70.1255833286441	-5.58816645655555	-69.7519026729878	-14.0903069828697	12.4104751540963	
2327500000	-14.2609417615799	-39.2656302748305	-5.64616560784381	-80.570417566177	-5.63782099741757	-80.2005467800849	-13.2019034381217	9.2380130150231	
2330000000	-13.5556924573393	-43.2546791276244	-5.6912295019131	-90.9332530995315	-5.68397894252077	-90.5538757267934	-12.5239020237296	5.15640635921941	
2332500000	-13.0423679707864	-48.2008904615463	-5.73157364651975	-101.213234048142	-5.72286816366357	-100.844480593837	-12.0435525599147	0.555602005256372	
2335000000	-12.7184142701632	-53.7470575892461	-5.76072285531886	-111.44147851489	-5.75099260089891	-111.079612204309	-11.7466004853228	-4.28827680478407	
2337500000	-12.5799666727883	-59.6581372783685	-5.77700862093358	-121.633940217455	-5.76627701335935	-121.280688599744	-11.6233510052023	-9.1929943984499	
2340000000	-12.6245393695148	-65.7733544155509	-5.77945134091916	-131.82343562815	-5.76812043725399	-131.481193332896	-11.6685152952371	-13.9872321784715	
2342500000	-12.8605903738338	-71.940603872079	-5.76775411427433	-142.036213697539	-5.75546418332391	-141.689023352164	-11.8756814566217	-18.4580222092068	
2345000000	-13.2972708729532	-77.9888048839842	-5.74410662266313	-152.301860238231	-5.73360410295141	-151.952671050847	-12.2496100490515	-22.4321032300666	
2347500000	-13.9582682006625	-83.7013453788604	-5.71220057103012	-162.639531236847	-5.70259637036323	-162.295014523894	-12.7807116269344	-25.6216269382389	
2350000000	-14.8681761945307	-88.7596019896043	-5.67751749545774	-173.067400976799	-5.66697320694831	-172.725851278587	-13.4561166634618	-27.6127392385025	
2352500000	-16.0577420279498	-92.6210546386553	-5.64267464826484	176.406257676367	-5.63256444227751	176.743777349048	-14.2354197772486	-27.9601526954573	
2355000000	-17.5477019840016	-94.4015316494791	-5.61266893434817	165.79038123777	-5.60476513022259	166.13523562394	-15.0226367247142	-26.1561116993763	
2357500000	-19.2943614604641	-92.5229352443325	-5.59406818153013	155.114809473975	-5.58460097515978	155.448324556922	-15.6495816400155	-21.9909757874518	
2360000000	-21.0125842236328	-84.8071186491063	-5.58553790596287	144.39665520872	-5.57791456680802	144.729645388792	-15.9246177753001	-16.0927150513256	
2362500000	-21.9581967925835	-70.8073741033489	-5.59385039926698	133.663323170437	-5.58532450084019	133.993011095505	-15.7213720391086	-9.98363875959336	
2365000000	-21.479320611344	-56.1547482201568	-5.61553907348309	122.944129974259	-5.60571978435104	123.282674615348	-15.1276615130802	-5.34231272256056	
2367500000	-20.0685472646501	-47.320373523585	-5.64792965147335	112.290709723702	-5.63701691014127	112.619527753931	-14.3355486457264	-2.95475910341737	
2370000000	-18.5474831496689	-44.6683260127314	-5.68800556703308	101.708378377846	-5.67653520536219	102.02880712591	-13.523173086186	-2.74795340902102	
2372500000	-17.2492346503816	-46.0773443712538	-5.73078897802312	91.2088542922301	-5.71890432935543	91.5343819662243	-12.795216213176	-4.22858763362888	
2375000000	-16.2633235709975	-49.8815587290807	-5.77218566409615	80.8002320485861	-5.76020704425773	81.1201587007394	-12.2035511006687	-6.91498267863206	
2377500000	-15.5679441802582	-55.0744981167299	-5.80760385711603	70.4652280097427	-5.79470847123729	70.7814377075528	-11.7630682793185	-10.4119909963695	
2380000000	-15.147620122476	-61.1402390472978	-5.83263603099926	60.1859973612566	-5.81930652414021	60.5047302414043	-11.4787977232901	-14.3799668267496	
2382500000	-14.9807497202573	-67.7512719415149	-5.84699787765693	49.9496257136568	-5.83362480061495	50.2565621811118	-11.3542297696517	-18.599343992486	
2385000000	-15.0649111218989	-74.7132351340224	-5.84780499395132	39.712420648453	-5.8354654076166	40.012769941341	-11.3831504155138	-22.8446230752331	
2387500000	-15.4081572128522	-81.8676963995442	-5.83777911902551	29.454876588369	-5.82519084780775	29.7501409580533	-11.5651988926713	-26.944340563618	
2390000000	-16.0263176670672	-89.0692263386038	-5.81695128097189	19.1578202358545	-5.80486197793034	19.4413174562122	-11.8935425327159	-30.6667133273791	
2392500000	-16.9715531774614	-96.1871802131003	-5.78907342277841	8.79655746421298	-5.77722661051166	9.07383318171013	-12.3667239148121	-33.7930341814702	
2395000000	-18.3110969481695	-102.888762623222	-5.75804458782627	-1.64244168250031	-5.74690980913191	-1.36811998799131	-12.969998104755	-36.0268284075225	
2397500000	-20.1904580086749	-108.683906269664	-5.72762276694137	-12.1560304265314	-5.71636843683695	-11.883159671359	-13.6722757441168	-37.0303953761717	
2400000000	-22.8503268900374	-112.289051085443	-5.69902962648977	-22.7393192483579	-5.69079819923742	-22.4644612003984	-14.4139607942648	-36.4736876820315	
2402500000	-26.7602643954862	-109.538209851579	-5.68072616229222	-33.3645631674016	-5.67119646647477	-33.1052883546275	-15.0956210264004	-34.0834707684022	
2405000000	-31.9462692212624	-82.8710983362059	-5.6701963276336	-44.0410763410863	-5.66060630203065	-43.7705773135703	-15.5804973628792	-30.105478410714	
2407500000	-30.6303938189445	-28.6307556272418	-5.66979546157619	-54.7156407090807	-5.65970291600563	-54.4467979936819	-15.7614801742675	-25.3290640671675	
2410000000	-25.8607659086271	-12.6662855779199	-5.67768001053228	-65.3833320570683	-5.66736007032062	-65.1223846728595	-15.62038530881	-20.8953565161837	
2412500000	-22.6527376519946	-12.5695806898278	-5.69227254225892	-76.0201760557917	-5.68115745367365	-75.75624627913	-15.2488010840939	-17.7037642059986	
2415000000	-20.5512577744492	-16.996632570738	-5.7122434707318	-86.6220819403506	-5.70149842000403	-86.3511536174112	-14.7846109878534	-16.0972924962749	
2417500000	-19.1608170102963	-23.021219366235	-5.73404258577522	-97.1722288480394	-5.72372942528123	-96.9016702994202	-14.3389492459386	-15.9583396785242	
2420000000	-18.2859444733326	-29.7208709404098	-5.75534920866106	-107.680749224203	-5.74433487258808	-107.406833500137	-13.9823039841062	-16.8948236378792	
2422500000	-17.8201166811797	-36.5829594526747	-5.77251287356614	-118.150813242198	-5.76243175926756	-117.889196003061	-13.7541721223269	-18.53418372293	
2425000000	-17.7198345704252	-43.3569212872822	-5.78530844634393	-128.599488304502	-5.7741120964374	-128.342501319664	-13.6692461462642	-20.4749960226912	
2427500000	-17.9675638637669	-49.767472403537	-5.79127230376575	-139.049162221322	-5.78111483648123	-138.795046132545	-13.7319113670089	-22.3885207802466	
2430000000	-18.5803670404797	-55.4205660825334	-5.79301294196729	-149.510761016336	-5.78346480096569	-149.254247688843	-13.9321414331418	-23.9276811180041	
2432500000	-19.5838280213447	-59.7835416782316	-5.79236577754921	-159.99195638047	-5.78083078272386	-159.74565245575	-14.2493804596695	-24.7424573634874	
2435000000	-21.0355441604732	-61.6994262239544	-5.78910902118159	-170.512708740759	-5.77715688397912	-170.264759676393	-14.6399860003194	-24.4918425491662	
2437500000	-22.9265106415001	-58.8856553092254	-5.78668552801456	178.934324174433	-5.7744132129862	179.170453472529	-15.0290411051542	-22.9312646118479	
2440000000	-24.8759480511858	-47.3377952138255	-5.78845391756605	168.340150993363	-5.77427040325156	168.568589766023	-15.3158778688684	-20.0306332886707	
2442500000	-25.4956764169988	-25.9569699423681	-5.79327742180388	157.718375984531	-5.78138597904457	157.949270087351	-15.3952743200098	-16.175806368605	
2445000000	-23.8670275188557	-7.0736587585183	-5.80606201039627	147.085118275608	-5.79467136389163	147.318093480252	-15.2074826806593	-12.1914452272789	
2447500000	-21.452537432555	1.233206968922	-5.82711086296028	136.458841653326	-5.81748341950216	136.69513354721	-14.7815956994038	-8.93447833620639	
2450000000	-19.3011389809762	2.29147071643911	-5.85516672930455	125.861926364088	-5.8451709311387	126.107441755913	-14.2067006522665	-6.98711588718503	
2452500000	-17.5882502334043	-0.360047226106127	-5.88931334402218	115.314599617144	-5.87986893970655	115.556899780088	-13.5868751817657	-6.52173136645155	
2455000000	-16.2778174556173	-4.91646243567244	-5.92627688626749	104.823677890784	-5.9168287189524	105.060030678092	-13.0099725309281	-7.36507766552117	
2457500000	-15.3044809151181	-10.4998896545258	-5.96300952908142	94.3880484665614	-5.95305143779606	94.6265441186321	-12.5242202559888	-9.22803727227726	
2460000000	-14.6206491548198	-16.5493669308294	-5.99532758105966	84.0130345863354	-5.98584420586571	84.242116991623	-12.1622382256326	-11.7998347113753	
2462500000	-14.1929489911984	-22.8140585762808	-6.02163892303687	73.6749991298444	-6.01220690436441	73.9138425654501	-11.9367122223533	-14.792457060224	
2465000000	-13.9980189681659	-29.0245587871164	-6.04080142404388	63.3784561883257	-6.0291103468851	63.618517852795	-11.8573859812522	-17.9840830502811	
2467500000	-14.022828163932	-35.0214693982862	-6.04898645421228	53.0891806453658	-6.03760108882267	53.3195016263348	-11.9224476381588	-21.1187411087445	
2470000000	-14.2640435291588	-40.5783547714597	-6.04778838378611	42.7784268737507	-6.03559021342882	43.0139695279947	-12.1341867056159	-23.9590237694416	
2472500000	-14.7251506102048	-45.413393999727	-6.03750466899547	32.421032893365	-6.02520800617846	32.6635622308335	-12.4820939368318	-26.2085138606973	
2475000000	-15.4025835990613	-49.1346070570312	-6.02133757778263	22.0196856044005	-6.0089229497536	22.2530949713974	-12.9501968838147	-27.5580675731607	
2477500000	-16.2811744514158	-51.1756896780343	-6.00350286851867	11.5504169819856	-5.99116555480208	11.7770629840788	-13.4992115079057	-27.6391042721763	
2480000000	-17.2967524776129	-50.7030409140752	-5.98683871632742	0.999840594294477	-5.97475658258361	1.23937039093657	-14.0546956897562	-26.1143087102279	
2482500000	-18.281708242138	-46.8464182663771	-5.97787928571005	-9.59540838495316	-5.96442537661411	-9.37231005319189	-14.5011151629776	-22.8652130679746	
2485000000	-18.9091543204995	-39.4443306508823	-5.9758179290197	-20.2380755303633	-5.96432315273741	-20.0170511852244	-14.6970032987816	-18.2514736885422	
2487500000	-18.8385402350289	-30.412418864933	-5.98582030630177	-30.8993936291748	-5.97427773337052	-30.684787719021	-14.5495179572064	-13.2739899632316	
2490000000	-18.0687832630092	-22.9624750649946	-6.00762347616198	-41.5473420364067	-5.99732778118712	-41.3441561463704	-14.082608362832	-9.14650133070528	
2492500000	-16.9372559409775	-19.0202277970031	-6.04047774055283	-52.1614668925669	-6.028669531478	-51.9527083899837	-13.4171605615157	-6.66022482058008	
2495000000	-15.7712525089967	-18.4246473194653	-6.08178069765483	-62.7128206505014	-6.06947811717004	-62.5042104511884	-12.6884812707876	-5.97169246914796	
2497500000	-14.7398869498595	-20.273515106269	-6.12657137970216	-73.17668032042	-6.11528423304943	-72.9689839165913	-11.9988474672892	-6.83039388093688	
2500000000	-13.9015477651357	-23.7370842443806	-6.17219559287038	-83.5542594845366	-6.15951466081379	-83.3452848649452	-11.4046849826117	-8.89218469403038	
