!Agilent N9923A: A.05.17
!Date: Sunday, 01 January 2006 12:54:32
!Model: N9923A
!Serial: MY50371189
!CHECKSUM:1851841409
!Correction: S11(ON Q)S21(ON Q)S12(ON Q)S22(ON Q)
!S2P File: Measurements:S11,S21,S12,S22:
# Hz S DB R 50
500000000	-24.3204709423227	15.6439927722506	-0.970387427336508	-62.8252364046126	-0.959652581307233	-62.8946568735389	-24.0297183970861	40.9934055586648	
502500000	-24.4429911114719	2.87367074789036	-0.973300744185506	-75.694631032602	-0.962133151401578	-75.7612821473121	-24.1549993302753	30.7399874430189	
505000000	-24.9928625470743	-9.86870939202455	-0.974361893740218	-88.5689302822523	-0.963537128600939	-88.6307183313389	-24.6999391609373	20.5934779967824	
507500000	-26.0185309201812	-22.5184748534162	-0.974085369409904	-101.44822935909	-0.963165808640083	-101.508062800243	-25.7024381153332	10.8420295244542	
510000000	-27.6521032684131	-34.9420611781707	-0.973214865461373	-114.338385585345	-0.962573168264101	-114.39477840654	-27.275990204211	1.89993300973261	
512500000	-30.1666103489726	-47.0185719331107	-0.972680742918981	-127.238285505491	-0.962063715662931	-127.295470311479	-29.649096290846	-5.17998449801398	
515000000	-34.2721320202648	-57.6277660997827	-0.972218635007862	-140.148474413643	-0.962238074411201	-140.206541537967	-33.2583294934195	-7.07725882238077	
517500000	-42.9615419079154	-59.8653398737266	-0.973166520891786	-153.064899828877	-0.963324717737016	-153.120989568134	-38.6461748666139	10.3042129534234	
520000000	-44.3429301598484	69.5492229695464	-0.975277762233529	-165.983718382619	-0.965838074049701	-166.039442512404	-38.8893603354522	66.9564676960383	
522500000	-35.0533427036798	69.770003197783	-0.979379342670846	-178.9002129752	-0.969235652383972	-178.956598689421	-33.6702297019415	85.8388545469428	
525000000	-31.0113254517569	58.9136864267716	-0.984066440400492	168.190304775886	-0.974267275695561	168.132233275775	-30.1853642829685	84.5977983457833	
527500000	-28.6707705383587	46.4595041498535	-0.989416914293767	155.289316622793	-0.979738692214352	155.229985654021	-27.9944297203513	78.185305763788	
530000000	-27.253650672961	33.2928001701721	-0.994841385041264	142.392920767284	-0.984810010709985	142.337376756475	-26.6183138229207	70.0820227050911	
532500000	-26.4833923257296	19.6994620460121	-0.999551507862021	129.505606828427	-0.989212656189139	129.451048502157	-25.8349059742317	61.4397039325749	
535000000	-26.2579857913124	5.47282216387492	-1.00329529477886	116.622586472219	-0.992695162018576	116.568381749827	-25.5397262600814	52.9048724029366	
537500000	-26.5351094622044	-9.44099619559304	-1.00579385188395	103.742563874123	-0.995247912552155	103.687981629734	-25.6867947499189	44.9367178356068	
540000000	-27.3471795534378	-25.4797643091744	-1.00710357754076	90.8584785097545	-0.99684802717645	90.8069307573481	-26.2551279626439	38.1272689905722	
542500000	-28.7477236646353	-43.4195674141471	-1.00788455150633	77.9699518746512	-0.997266114934676	77.9192154911299	-27.2352504350741	33.5088741461289	
545000000	-30.857775419962	-65.3939677976805	-1.00838236283776	65.0727076539032	-0.998053994699501	65.0203722477915	-28.5662724678855	32.4885020234518	
547500000	-33.6922119829255	-96.7748406241508	-1.00947149649523	52.1681094290189	-0.999142491121862	52.1176494723333	-29.9523507505363	37.3702322742263	
550000000	-35.6436763819744	-146.361107567748	-1.01124148995434	39.2585600262998	-1.00092839858415	39.211164244394	-30.642125847581	48.6724408058487	
552500000	-33.713568661719	162.550746525034	-1.01470823890191	26.3469136565257	-1.00422244962102	26.299503085513	-29.9481365808429	60.8651869948729	
555000000	-30.5270352621826	129.638006296502	-1.0190637942569	13.4355984189928	-1.00911631766287	13.3909606532764	-28.3339654077454	67.1923732992089	
557500000	-27.9766034017127	106.836704384972	-1.02497967507407	0.532692308488995	-1.01532429976613	0.485880350155456	-26.6626367655026	67.2044177272487	
560000000	-26.13914237992	88.452375647229	-1.03102343628581	-12.3635925346225	-1.02128490334671	-12.4106366605839	-25.2776810661692	63.0920088777859	
562500000	-24.8884562718476	72.1052858845188	-1.03755362357954	-25.2516713731308	-1.02753441950468	-25.2985976412377	-24.2692302713378	56.5420925877623	
565000000	-24.1095535421153	56.842364217413	-1.04330114387331	-38.1333135516107	-1.03313140979853	-38.1735093539076	-23.64041644649	48.6654236282486	
567500000	-23.7526012445037	42.2413872105586	-1.04763165410792	-51.0043086079874	-1.03796177436549	-51.0460138217755	-23.3770456245043	39.9575964305271	
570000000	-23.7963755777077	27.9908731163343	-1.05056249681706	-63.87236185811	-1.04090341556832	-63.9158383262861	-23.4810747083072	30.9356547997412	
572500000	-24.2685815484374	13.9506314924495	-1.05127481117378	-76.7416973693901	-1.04171881933411	-76.7882765103708	-23.9741562327777	21.88975505424	
575000000	-25.2183431833627	-0.110862188808671	-1.05122454545645	-89.6231662870261	-1.04120993216653	-89.6649122037276	-24.9143065688017	13.2904902121046	
577500000	-26.7812335660976	-14.3037160959292	-1.04960252147937	-102.513021809071	-1.0400656451489	-102.55558634675	-26.3859212948263	5.85339920074455	
580000000	-29.2469309018468	-28.9880917418331	-1.04781060043337	-115.415141171205	-1.03894956970054	-115.457634323433	-28.5757990563413	1.09274701489307	
582500000	-33.4104162096868	-45.826391582755	-1.04731486179204	-128.327300642941	-1.03784901381197	-128.371165727115	-31.6896394662088	3.38953570473705	
585000000	-42.5968209424815	-77.3574321048482	-1.04762432201726	-141.250786628935	-1.0385177457894	-141.292498732465	-35.0097754503741	24.3400105403028	
587500000	-40.7979045254591	140.221435790666	-1.04960195440068	-154.172127035017	-1.04077762480259	-154.218069542205	-34.1646063915425	59.6565260489665	
590000000	-32.5708648893671	113.07752883178	-1.05439140645488	-167.095807253411	-1.04526352578322	-167.138220809706	-30.5257697098661	73.3022642832655	
592500000	-28.554424083089	97.1170233290161	-1.06044466479719	179.988041081835	-1.05136843777481	179.947062526329	-27.6003736605573	72.3868145497836	
595000000	-26.0772379204351	82.9946544645663	-1.0675185247407	167.085992079662	-1.05907090187583	167.044664940445	-25.5370789212907	65.9002651155927	
597500000	-24.4569481490409	69.6641207528966	-1.07536067331998	154.200309291907	-1.0664963519482	154.160078761876	-24.1410574518925	57.055879070758	
600000000	-23.431211409243	56.7684995757095	-1.0821374325832	141.328491406198	-1.0735712718638	141.290135922543	-23.2659819774342	46.9103467683813	
602500000	-22.8686294597147	44.2112635184185	-1.08830012200476	128.46659296871	-1.07940310445742	128.428056427726	-22.8383993106693	36.0384575878324	
605000000	-22.7174774004337	32.0014448357464	-1.09195315226563	115.611304560207	-1.08304607450333	115.572845675209	-22.8153571384627	24.6938004842028	
607500000	-22.9688927792627	20.2062505048706	-1.09339673081269	102.752007062919	-1.08471509381521	102.718294975434	-23.1993638324204	12.9308073152745	
610000000	-23.6545234224547	8.98964437137588	-1.09268395479021	89.8873824350253	-1.08394337827524	89.8536054596025	-24.0409987960973	0.868535601714316	
612500000	-24.8209550918125	-1.3123068601317	-1.09071822658679	77.0091744120921	-1.08186129321758	76.9795533331122	-25.4549676285954	-11.6349887147222	
615000000	-26.6164179909909	-9.80301299972223	-1.08838101129179	64.1146263344414	-1.07932862918987	64.0865092724897	-27.6694237673523	-24.7187211670287	
617500000	-29.2801555348422	-14.3161836061242	-1.08626707770484	51.2045987475488	-1.07749283513273	51.1774068747131	-31.298690475306	-39.4029857479605	
620000000	-33.0920061941059	-8.03085152460483	-1.0852519796768	38.2808747931527	-1.07688299467828	38.2602605347093	-38.5159258211191	-60.8505156034325	
622500000	-35.8408251092605	25.9966313987989	-1.08697947491435	25.3501849230689	-1.07783405273161	25.3279998506501	-44.5093513186271	155.874404379937	
625000000	-32.5639288762568	56.9800985951731	-1.09064316574242	12.4196302524438	-1.08183618527345	12.3944960372815	-33.3196003860372	119.065300694297	
627500000	-28.7497167734598	61.569130577695	-1.09687768772737	-0.507474969063009	-1.08864999540124	-0.529943802705595	-28.6214331258888	103.013706571322	
630000000	-26.0768901742222	56.5535125795053	-1.10565857397847	-13.4193034927436	-1.09655275426884	-13.4462798082029	-25.8394449007379	89.101341495218	
632500000	-24.2391739287598	48.0782484309657	-1.11394170815897	-26.3148987168929	-1.10527792857209	-26.3404512823568	-24.0373288272126	75.9548258682664	
635000000	-23.0018914369864	38.144719057639	-1.12230617234374	-39.1935298933409	-1.11377764412721	-39.217954863764	-22.8780507928955	63.0020966590782	
637500000	-22.2380245922824	27.4558779254615	-1.12989547419285	-52.0586709581445	-1.12187735140308	-52.082787171911	-22.1790177101311	50.2283054597948	
640000000	-21.8627649052834	16.4081868219047	-1.135349703599	-64.9065620994087	-1.12778967535125	-64.93527473485	-21.8934674647772	37.4975170088438	
642500000	-21.8603445852922	5.22128497693551	-1.13861638027039	-77.7536260056164	-1.13045398506635	-77.7832844385661	-21.9864319591603	24.7594265646051	
645000000	-22.2287630411606	-5.95618730413955	-1.13820400159798	-90.6048618867188	-1.13032156339285	-90.630965567879	-22.4638416842402	12.0219208304898	
647500000	-22.9796017385789	-16.8777203660243	-1.13658880672482	-103.458938127875	-1.12843926059307	-103.490776560054	-23.3663205965625	-0.764081741080063	
650000000	-24.1753014390804	-27.2985127144726	-1.13317705821056	-116.326875590773	-1.12543175889303	-116.360471534129	-24.7540295959483	-13.7224068514756	
652500000	-25.9411402825874	-36.8258286149939	-1.12971932415014	-129.212533811869	-1.12196478385491	-129.246439900737	-26.8340933730395	-27.0337241972441	
655000000	-28.4825466545503	-44.0710793096896	-1.12653186184312	-142.113917504059	-1.11844825129902	-142.148616814162	-29.9999552144585	-41.0657756979168	
657500000	-32.2400306546048	-45.4327849638344	-1.12498293417819	-155.024134062675	-1.11721186320772	-155.062484331	-35.4424387374877	-57.8175896735152	
660000000	-37.2540411439096	-25.4966995653452	-1.12564958775996	-167.943564577085	-1.11765223424681	-167.987652018059	-50.1128265598851	-117.580969254794	
662500000	-36.8713460956949	23.4223176952715	-1.1279540004643	179.132196425428	-1.11988445263083	179.089073078699	-37.8290857434362	118.000772450475	
665000000	-32.3730217097727	38.6151682750512	-1.13248928801655	166.215585336737	-1.12414999621356	166.17233412623	-31.8275448026041	99.5932018535247	
667500000	-29.3048997401512	36.1397935215488	-1.13739305189044	153.308282473225	-1.1298315420943	153.261881469126	-28.7721369683428	85.323731795531	
670000000	-27.4211472254714	28.6395675951192	-1.14327326849325	140.407460296059	-1.13482667865517	140.364026501816	-27.0158091809956	72.2920785398159	
672500000	-26.3428031799121	19.1980806887799	-1.14826436397451	127.52033041189	-1.14021457565897	127.474503702401	-26.0549513404439	59.6416129287611	
675000000	-25.8861512254618	9.04123180347406	-1.15223414320883	114.6370378439	-1.1441897856249	114.589947142252	-25.7249749699845	47.3883629847169	
677500000	-25.995744712177	-1.40092972292559	-1.15496992068491	101.756873182594	-1.14676973688372	101.71166769876	-25.9718711122546	35.395184341157	
680000000	-26.6979975776795	-11.6666496862959	-1.15570109992868	88.8749525105803	-1.14757137294681	88.8284666994885	-26.845212861224	23.7563256169965	
682500000	-28.0949645486697	-21.1474414426673	-1.15585379958823	75.9842635754394	-1.14747488957426	75.9342598272053	-28.513695193956	12.7774938540892	
685000000	-30.4428852879788	-28.3283301906713	-1.1554434933836	63.0822892818358	-1.14735521903722	63.0356174893797	-31.3672021817973	3.49441708501099	
687500000	-34.4192203727794	-28.3190498808245	-1.15570827433062	50.1715301928789	-1.14717273947883	50.1241452126024	-36.7503637294022	0.441175150027371	
690000000	-39.8045401796637	3.98174270193376	-1.1573322124577	37.2539908108589	-1.14844788665521	37.2018022793023	-46.1802992492053	67.4612099919722	
692500000	-36.0163102637263	56.3884880421019	-1.16086936560401	24.3280719912639	-1.15174438792594	24.2790369458339	-35.4968839207038	119.769269213992	
695000000	-30.7639575148843	62.7457650735138	-1.16586515610582	11.4066157336072	-1.15728096096432	11.355818473275	-29.9681739574325	115.777519297936	
697500000	-27.4015060294775	56.7580209586733	-1.1726780647054	-1.50464404581745	-1.16429245659464	-1.55639291497278	-26.7021986564662	106.676249343321	
700000000	-25.1393899411463	47.1873443136684	-1.18135002597208	-14.4038346042766	-1.17263585729739	-14.456158036446	-24.548117154027	96.2412525752535	
702500000	-23.6009459834184	36.1104173726463	-1.19042306429676	-27.2866114938335	-1.18170475892053	-27.3398795559787	-23.0796015397698	85.3492362130372	
705000000	-22.5793872571271	24.3059267426418	-1.19918152272529	-40.1547951916724	-1.19056908189691	-40.2061444900819	-22.1195594799327	74.3915016508883	
707500000	-21.9853883185709	11.9730689633207	-1.20592834319113	-53.0095432678911	-1.19758391321487	-53.060206019096	-21.5695118499291	63.5171898590004	
710000000	-21.7853869334559	-0.806335794541388	-1.21040599488691	-65.8558533226754	-1.20218737496723	-65.9087603929705	-21.3916724539477	52.845901025921	
712500000	-21.9483900090473	-13.9866279696685	-1.21187266344172	-78.7039735939336	-1.20401256501618	-78.7577494634827	-21.5607525609793	42.5409367610929	
715000000	-22.5046689725646	-27.6175022374521	-1.21108045088414	-91.5603346893379	-1.20287295156679	-91.6120712171936	-22.0957756316775	32.9042739973628	
717500000	-23.5059443956229	-41.9196855040242	-1.20843079684414	-104.426349117996	-1.19951027038543	-104.477499954545	-23.0329579403694	24.3108997872752	
720000000	-25.0637495411407	-57.3077848202135	-1.20460505848206	-117.310732438417	-1.19588819875714	-117.358957892672	-24.4130733371614	17.503505790913	
722500000	-27.3886871252557	-74.8219872615262	-1.20083110552618	-130.213764569932	-1.19283745612632	-130.261594506836	-26.3001298265004	14.0875207232966	
725000000	-30.9250437246284	-97.8276435966068	-1.19908406664053	-143.133073354405	-1.1898823116477	-143.179462019919	-28.5969997782501	17.2459914673466	
727500000	-35.9212959747254	-140.448102668811	-1.19829169685443	-156.062015045191	-1.1894176958346	-156.108341351354	-30.494171550568	31.483393528191	
730000000	-36.0232727948911	142.715483799729	-1.200693184004	-168.995213035624	-1.19135912548395	-169.03641732006	-30.1934580982168	51.8238847325009	
732500000	-31.0974517044234	99.7105238456562	-1.205240179473	178.078177359072	-1.19621563329413	178.035906609899	-28.1290489295262	63.1663272440976	
735000000	-27.6395428742453	76.4597288618937	-1.21202796516957	165.160817853262	-1.20258035811547	165.121220611531	-26.0082369534748	64.3205706094881	
737500000	-25.3897430007937	58.603183524718	-1.21946597186643	152.26025258887	-1.21021899449806	152.221152017673	-24.3676192100308	60.1078954896067	
740000000	-23.9397858127879	42.8457095056313	-1.22698042914559	139.377566026057	-1.21764388208538	139.338018698968	-23.2278833853327	53.1550719384373	
742500000	-23.0542419136955	27.9988296996611	-1.23393422768093	126.504776403755	-1.22436465392251	126.469534876655	-22.5285843540426	44.7955414874233	
745000000	-22.6317864868773	13.6837407009393	-1.23864158449915	113.646719471505	-1.22886148221908	113.61511904285	-22.2393752063048	35.7273772455737	
747500000	-22.6267508421758	-0.361217163849615	-1.24068972041363	100.795932925255	-1.23100736386512	100.766997749068	-22.3411940386677	26.3281107724866	
750000000	-23.0529309962598	-14.3082388353201	-1.24045286322358	87.9442519563616	-1.23108167137171	87.9159425776439	-22.8374258790902	16.9562900959565	
752500000	-23.9534490541417	-28.2811496786403	-1.23849397347607	75.0785789077465	-1.22876519111837	75.0552425023362	-23.7759553559661	7.93833671978916	
755000000	-25.4135177127657	-42.4166436317258	-1.23507613562633	62.2026909972155	-1.22566631721631	62.1813691322934	-25.2341976782617	-0.120541415029583	
757500000	-27.6553616966167	-56.9881302793883	-1.23131498620696	49.3032870353247	-1.22181055665768	49.2893393062064	-27.4092352315348	-6.01603496837883	
760000000	-31.2514737594478	-72.7838498988738	-1.22876893808195	36.3925677799001	-1.21975659172881	36.3794296439085	-30.5494096545856	-6.57189766356962	
762500000	-38.0537458176011	-94.5296762942884	-1.22845151636509	23.4718757734003	-1.21899500589161	23.4598435277601	-34.5715554685417	8.66334725734194	
765000000	-46.8058131992952	132.105714635121	-1.2296069774477	10.543068080454	-1.22063071367811	10.5360628913924	-35.4055871556337	49.0213150660808	
767500000	-34.7812124332842	83.7366545979081	-1.23319586263974	-2.38086130201453	-1.22474503451459	-2.38472605762335	-31.6892714085289	70.2615494400894	
770000000	-30.0282040552944	65.7761823806726	-1.2387080637245	-15.2972258938952	-1.23014266242239	-15.2984227071123	-28.5491918696855	72.0708670711989	
772500000	-27.3713956023094	50.5093735048851	-1.24467349896866	-28.1990193785038	-1.23652841115769	-28.199360799123	-26.4495519550011	67.215682343688	
775000000	-25.7770330318919	36.0094887687789	-1.25165579299664	-41.0890162592073	-1.243179658764	-41.0887372097064	-25.1035289191389	59.8945320969108	
777500000	-24.8874659939506	21.6599358365671	-1.25678739037235	-53.9656472520878	-1.2484794855887	-53.9662654624057	-24.3522602977518	51.5432940458827	
780000000	-24.5734924712547	7.27225855846299	-1.26051546981285	-66.8400955594321	-1.25213285577413	-66.8391136180214	-24.1096341770834	43.0306136743967	
782500000	-24.7687935569267	-7.32309444144328	-1.26239639291986	-79.7063911435466	-1.25377533675556	-79.7101394306136	-24.3334546564102	34.7902181190884	
785000000	-25.522053930676	-22.4578115241144	-1.26178370106529	-92.5833680742145	-1.25390695165629	-92.5853227285144	-25.0376692761654	27.5372221222415	
787500000	-26.9282664929883	-38.6115565522956	-1.26150847692911	-105.468010669714	-1.2527246465481	-105.469667049829	-26.2599018209338	21.9795729816666	
790000000	-29.2190213323082	-57.2007026793427	-1.26008789726637	-118.362798279361	-1.25135715102351	-118.36884963619	-28.0511956781325	20.2304876616323	
792500000	-32.8396810721633	-82.3036028649064	-1.25924520915086	-131.271774003079	-1.25008217756096	-131.277881755432	-30.2545776316377	26.2279590527822	
795000000	-37.8756686782401	-132.693604151655	-1.25947521227824	-144.189564392605	-1.25052405403046	-144.197986068562	-31.7140137576437	44.3396550336062	
797500000	-35.9650057452698	150.193034417356	-1.26304641266028	-157.113591554307	-1.25444611593854	-157.122121319619	-30.641280165453	65.1308689084503	
800000000	-30.9301072263528	113.062715821633	-1.27130456893531	-170.029362772165	-1.26186071599111	-170.042719633692	-28.2217580705349	74.416287516394	
802500000	-27.5696459183351	90.8155137015375	-1.27250208249465	177.039558280632	-1.26314998466067	177.024757532631	-25.9550031772135	74.1909825501119	
805000000	-25.3647391537207	73.408027116619	-1.2811939665738	164.142929009545	-1.27225910567809	164.130462099984	-24.2797632760581	69.7001286654853	
807500000	-23.9252412109075	57.5600426208265	-1.28954672099485	151.26510976877	-1.27947542861814	151.249600432124	-23.1258527560818	62.6666583814199	
810000000	-23.0603648898309	42.4601165575299	-1.29351303028071	138.392258948939	-1.28537418563163	138.381951467486	-22.4217292848456	54.5309249707288	
812500000	-22.6640795237303	27.9103362028239	-1.30055113616833	125.541459626521	-1.29081974555482	125.524435403876	-22.136001774033	46.0190052963018	
815000000	-22.7137122317128	13.4679146856136	-1.30187638835814	112.682674709772	-1.29330276750547	112.676972414446	-22.2546535135737	37.3276553270744	
817500000	-23.2421310314603	-1.09504156770516	-1.30179606714603	99.8246226442625	-1.29362738761596	99.8076354213644	-22.7859373973842	29.0823398222411	
820000000	-24.2864774704405	-15.7811428965056	-1.29790397073321	86.9548016475862	-1.2896964755775	86.9288878696742	-23.7965228448732	21.7424155065589	
822500000	-26.0600677564271	-31.2559096476425	-1.29583046068483	74.0632698468179	-1.28706915360174	74.0428772042918	-25.3662768560674	16.3176944189014	
825000000	-28.9102111572987	-48.2796523478035	-1.29548133054611	61.1589319454024	-1.28152686239616	61.129657564964	-27.6362467553265	15.4242261396293	
827500000	-33.9443539951797	-71.3404745591433	-1.29050543692338	48.2277379017768	-1.28191164872096	48.2093468655784	-30.445173652144	24.8470938715918	
830000000	-42.7825451229139	-146.061028282877	-1.2952334081989	35.2956657157905	-1.2848692164292	35.2739874835045	-31.8780974525094	50.9634275423432	
832500000	-34.626780425007	124.198033503478	-1.294944609545	22.3543861104557	-1.28665007333274	22.3275454394636	-29.6826986167297	74.5029654927457	
835000000	-28.9629120217901	99.3603618535362	-1.30290151443272	9.41717808332984	-1.29412363387525	9.39522684988241	-26.683759553585	81.3075532390228	
837500000	-25.71790323943	81.6236357323143	-1.31121144050177	-3.49755181469007	-1.30272810628249	-3.5245678458091	-24.3112374121055	79.3506216774278	
840000000	-23.6255362782575	65.8415752362752	-1.31764653519538	-16.3903604471871	-1.31159795482853	-16.4251553934051	-22.6011367306827	73.5967894910005	
842500000	-22.2696013215918	50.7967962907603	-1.33189666235236	-29.2628446157601	-1.32298088564673	-29.2972507248064	-21.4471824902725	66.2610009818079	
845000000	-21.4386998066091	35.9166511296099	-1.33966431887021	-42.1286981072713	-1.33536614854176	-42.1360534626419	-20.7239611183442	58.0523741266631	
847500000	-21.0727901760477	20.9061244910673	-1.34498682562906	-54.9552083948556	-1.33713169274366	-54.9852353561794	-20.3826454097237	49.8102203394323	
850000000	-21.109821274478	5.70411083761704	-1.34794721815131	-67.7805393847678	-1.33843417419102	-67.8154194977843	-20.402942539576	41.7148894786108	
852500000	-21.5617890587127	-10.248208328779	-1.34703967712566	-80.6270942851673	-1.33900352168347	-80.6595492808178	-20.7674082424317	34.2123826874344	
855000000	-22.4572183234621	-27.1855146756937	-1.34413137385509	-93.4791039074177	-1.33467711283234	-93.5163424955327	-21.4776937165796	27.9655466727873	
857500000	-23.8606748137254	-46.1207008416291	-1.33781094268252	-106.359488750514	-1.32956012957179	-106.392198460966	-22.5471145100225	23.8260224499547	
860000000	-25.8533981237889	-68.9269133012605	-1.33599265721102	-119.273728953348	-1.32796298666456	-119.298836303249	-23.8794570828034	23.0383214435175	
862500000	-28.3396797180687	-99.81367148671	-1.33048637426897	-132.18870663391	-1.32187830873237	-132.218487150127	-25.214444288257	27.7684145707123	
865000000	-30.0585401936998	-144.365615244771	-1.32923554590983	-145.124168740151	-1.32261918370942	-145.147021241566	-25.8724381630315	37.8721565220611	
867500000	-28.9337274430744	167.96879492499	-1.33518738213914	-158.072360331745	-1.32672211009053	-158.099569776747	-25.350256286405	48.685111499307	
870000000	-26.338233739258	133.377722229489	-1.34018000239214	-171.004836359403	-1.33282228943578	-171.036351032671	-23.990142137407	54.6328912100933	
872500000	-24.0483584800464	108.926829251661	-1.35296988030101	176.077185170203	-1.34411972664259	176.050802985404	-22.5275670861854	54.9140216091501	
875000000	-22.3637791568047	89.1894260139227	-1.36364909517166	163.179750623045	-1.35664591809803	163.171209063874	-21.3034278145236	51.3018496642199	
877500000	-21.212831674258	71.9010588118762	-1.37430466807485	150.315744541822	-1.36663755878767	150.296224285814	-20.4172163781928	45.3237661993199	
880000000	-20.5218591861576	55.9894170680617	-1.3831495055615	137.474593815478	-1.37475351873343	137.459598674366	-19.8885245303999	37.9481546990968	
882500000	-20.2450122336176	40.6663570246111	-1.38800675283217	124.637569676978	-1.38059471029515	124.622026779127	-19.7058889199988	29.8313581712864	
885000000	-20.3836202373854	25.8878755407145	-1.38809075655307	111.825796536046	-1.38465608373922	111.808636033629	-19.8863715978606	21.3874179466804	
887500000	-20.9364922593045	11.2551318695446	-1.38543466313357	98.9779097389109	-1.37806931674871	98.9586398997023	-20.453061140869	13.0310505543532	
890000000	-22.0038807336392	-3.44997531531844	-1.38017354864826	86.114769746457	-1.37363187580807	86.0979083543012	-21.4611547351524	5.21537472249115	
892500000	-23.7268930765351	-18.3288468395042	-1.370283840626	73.2375173363722	-1.3634397562618	73.2249441335716	-23.0266111429208	-1.19971300806287	
895000000	-26.4490303159432	-34.1099074630679	-1.36114902910515	60.3328834997156	-1.3577661814226	60.317785053594	-25.2869101609007	-4.25325682371535	
897500000	-31.1189006121356	-53.306907473162	-1.3586811562625	47.3921022773891	-1.35185976911572	47.3801273581187	-28.3609422494261	0.771260641286207	
900000000	-41.6910308763761	-100.35868699264	-1.35744045037294	34.4435604301799	-1.35111676576646	34.43090431986	-30.9672659264947	24.1966764693757	
902500000	-35.2202363990442	132.510401926604	-1.36291852268785	21.4883494961014	-1.35576417424482	21.4782708529347	-29.5973519893868	54.5272614832108	
905000000	-28.4100859837172	107.90487129521	-1.36921756925165	8.53287194579107	-1.36323871995894	8.53326450037379	-26.3701026973495	65.5311276787223	
907500000	-24.8663154110519	91.4739720540868	-1.38145455773418	-4.38529406429183	-1.37471043462215	-4.39071680435123	-23.7761116770508	64.51126518524	
910000000	-22.6854796534715	76.8188666422897	-1.39463494743112	-17.274752982913	-1.38718069566325	-17.2780600266601	-21.970028420213	58.7677637528934	
912500000	-21.3098658774968	62.7991322525954	-1.40717869354087	-30.1478806117729	-1.3996332791911	-30.1544694947609	-20.7696099422027	50.9189604583184	
915000000	-20.519936809073	49.1871494308002	-1.41589266767801	-42.9869164307923	-1.40842276165532	-42.9952829526122	-20.0830455447251	42.0369868017859	
917500000	-20.2067839638079	35.7681452820523	-1.42209682792708	-55.8219375279436	-1.41417677558007	-55.8270674270006	-19.821917733405	32.7004358739501	
920000000	-20.3491663764334	22.4591368111244	-1.42391951451351	-68.6577498320963	-1.41580664330696	-68.6576973884822	-19.9909226891816	23.2649228404096	
922500000	-20.9693587822995	9.31407027910738	-1.4184506497569	-81.4885584650245	-1.41087167296558	-81.4871431907325	-20.6113197378335	14.0968321938227	
925000000	-22.1647311939096	-3.68219295258722	-1.41233421887204	-94.3623070834965	-1.40292724880253	-94.3447973931618	-21.7438947507989	5.64729378158695	
927500000	-24.1397513362749	-16.6451221873808	-1.40396152392964	-107.245420487182	-1.39558688614674	-107.241965874847	-23.523312571008	-1.06183221693429	
930000000	-27.3934030143486	-29.1764801165559	-1.39519006976543	-120.174841001443	-1.38775551045914	-120.169010063353	-26.2221630489631	-3.55121548589669	
932500000	-33.7112945645654	-40.5855821298415	-1.39295294377818	-133.128687440905	-1.38429467943974	-133.117756072507	-29.987114149122	6.13400013503471	
935000000	-49.92795578337	99.8208842556551	-1.39287500858729	-146.101632319462	-1.38653831480788	-146.094787544467	-32.0203446131846	42.7114962941389	
937500000	-31.3836933097821	107.171434990679	-1.39964793430088	-159.068917184991	-1.39091986702696	-159.056092675313	-28.53134905398	70.6817851340429	
940000000	-26.0229166645552	95.4462138063172	-1.41079406374	-172.015781952805	-1.40105528519039	-172.001374740303	-24.9071473714623	74.9067501467156	
942500000	-22.9856860888139	82.8361597726926	-1.42512433948928	175.055912453298	-1.41595722141483	175.070278965278	-22.3619168030263	70.475718174939	
945000000	-21.051516823116	70.1899225758569	-1.44052268513608	162.171801234509	-1.43124686650601	162.190204943123	-20.6276914421313	62.8185467336921	
947500000	-19.8026100172878	57.5299524628895	-1.45485257021296	149.321095845153	-1.44666909623306	149.338501611845	-19.49472938571	53.8101022116651	
950000000	-19.0825412724717	44.9189433497745	-1.46708189860623	136.499303773551	-1.45872582725778	136.517393309076	-18.8332060005432	44.0957249660036	
952500000	-18.8030564850461	32.4163170828908	-1.47199537950667	123.704009851122	-1.46363232647989	123.723867437933	-18.5936210432426	34.1174495950089	
955000000	-18.9365221832742	20.0211526716153	-1.47141010369616	110.914165860413	-1.46351917303279	110.925656326642	-18.7563921631733	24.0227603171775	
957500000	-19.5144218363529	7.72717404151693	-1.46557649434814	98.0989586598672	-1.45712421171092	98.1194639659345	-19.3403327499175	14.1228840102824	
960000000	-20.5970671889802	-4.23551680726684	-1.45477161920792	85.25801172946	-1.44683102665567	85.2762486846298	-20.4176199215467	4.72056668540408	
962500000	-22.3381427946445	-15.6587162069367	-1.44458027708529	72.3714994822405	-1.43596803815028	72.3917821934752	-22.1119665557863	-3.58426548559501	
965000000	-25.0863996433387	-25.7540662434372	-1.43348867083754	59.4619531811541	-1.4280177150388	59.4722299328756	-24.7146008312095	-9.14923463158984	
967500000	-29.7836585528608	-31.0584683699415	-1.42760267735472	46.4887642196457	-1.41872919675161	46.5080097389878	-28.7129758097428	-6.55790051961942	
970000000	-39.0146389806451	0.196529173258344	-1.42600901292083	33.5142499047224	-1.41725271589835	33.5365227869802	-33.3329067547303	25.8608613050943	
972500000	-32.7729674141765	79.7025575220042	-1.43050007099107	20.5252312689358	-1.42162618931316	20.5472458206596	-30.2916655207078	71.7193680860323	
975000000	-26.5848139460983	80.1506343981139	-1.43835116869317	7.56395284914258	-1.43311108256143	7.56544904118125	-25.6865945329923	80.0434881725186	
977500000	-23.1935221448082	71.1883504979266	-1.45513852806956	-5.37855630276516	-1.44693100889898	-5.3619448189177	-22.6779970232274	76.3363349677173	
980000000	-21.0631512008385	60.089929417816	-1.47220378697188	-18.2861376032034	-1.46413521309553	-18.2632001805987	-20.6815242266904	68.88633503304	
982500000	-19.7065771406277	48.1921382056622	-1.48782360234175	-31.1391740200231	-1.47939447627541	-31.1155870195492	-19.377883282986	60.0810182530183	
985000000	-18.9113617704993	35.8557425190503	-1.500287303459	-43.9530177897682	-1.49195719568193	-43.9385881812032	-18.6116033249636	50.6915988158941	
987500000	-18.5796143736299	23.265150354949	-1.50583577619439	-56.7588394030891	-1.4962704284277	-56.7370928389227	-18.2536254190636	41.2669051290628	
990000000	-18.6802792590358	10.3823639733002	-1.50568284974703	-69.5612338655783	-1.4966341618812	-69.5365345339554	-18.3104729937217	32.0458913881185	
992500000	-19.2320094859591	-2.77375177890989	-1.50034099334389	-82.3685479844328	-1.49161651070771	-82.3429742055137	-18.7736941865	23.3469518596382	
995000000	-20.2974620438031	-16.3115696976822	-1.49047728802185	-95.206905558857	-1.4808249034228	-95.1782375543228	-19.6545422656152	15.7424158280455	
997500000	-22.041283375897	-30.5576398767872	-1.4794166157724	-108.089738421019	-1.47144921911996	-108.05996141355	-21.0392289967079	10.0109663301205	
1000000000	-24.8195714670421	-46.2931004804595	-1.46826101016712	-121.002693543668	-1.46016729171014	-120.97140163647	-22.9494785791478	8.16710324613052	
1002500000	-29.6049748434095	-66.9842715117529	-1.46148611667101	-133.965462200479	-1.45254136901529	-133.933748932176	-25.2314086602332	14.1779694149001	
1005000000	-38.9497101139966	-127.950861056639	-1.45562666438361	-146.947473221042	-1.45234988666053	-146.909167115583	-26.7098907999947	32.0898094741521	
1007500000	-32.0538645302537	129.014527670522	-1.46420659107107	-159.931272144409	-1.45665472850942	-159.889813083231	-25.675940832004	52.3277911149666	
1010000000	-25.9725034220288	103.663903305226	-1.47574875735248	-172.903813317297	-1.46796162588867	-172.855335044519	-23.3179900583594	61.1746615496762	
1012500000	-22.5929480775491	86.8419668712956	-1.49242452971474	174.165463344588	-1.48417596231615	174.208078510965	-21.1669310156768	60.9657094970943	
1015000000	-20.4623138009443	72.0410231066364	-1.50993672837443	161.25533838892	-1.50327190304917	161.322368648743	-19.5454978360426	56.1656630996713	
1017500000	-19.082098576662	58.214029189585	-1.5268403130579	148.422156724754	-1.51884137919641	148.46380143695	-18.4175489599978	49.0836114583173	
1020000000	-18.2562513284416	44.7817891114897	-1.54219575410643	135.610230053283	-1.53339278232583	135.647202109916	-17.7176263870407	40.8999632553385	
1022500000	-17.8795653527724	31.6106120144359	-1.54880751400728	122.825423371362	-1.54046157284384	122.868544739193	-17.4054557826281	32.1447322033326	
1025000000	-17.9175404694576	18.5960756955622	-1.55020001266181	110.04207716486	-1.54271287174995	110.079323279286	-17.4601552675335	23.1603100770251	
1027500000	-18.3709263570773	5.70462337763664	-1.54442334869886	97.2548096684379	-1.53649241751784	97.2930591585351	-17.8823423239268	14.4210369538767	
1030000000	-19.2956158490857	-7.13226536135518	-1.53270198683657	84.4358873450265	-1.52503383498768	84.479294633986	-18.7170281139615	6.17609734175343	
1032500000	-20.8043750678333	-19.9119286609806	-1.51983548935479	71.5701827139821	-1.51130352466593	71.606961623088	-20.02360259795	-0.83921938593494	
1035000000	-23.1743307939926	-32.5717847364818	-1.50455750696178	58.65545571041	-1.50137647154034	58.6977122685898	-21.9151043491192	-5.36589374923665	
1037500000	-27.0465289891809	-44.7733637210243	-1.49491883386907	45.708491867722	-1.48693938869007	45.7473498611565	-24.4842896943937	-4.24085020709167	
1040000000	-35.2642291104653	-54.8635593817005	-1.48908195530233	32.7258790434164	-1.48072641568862	32.7720251040394	-27.2782908799857	9.29521729623706	
1042500000	-39.3358298546112	99.4112011613073	-1.49173785678422	19.7427313835541	-1.48324206723387	19.7873995594457	-27.7664178933901	37.0034636179869	
1045000000	-28.4229314610461	92.1540661907107	-1.49952463013512	6.76443077338159	-1.49168451307128	6.8136820514803	-25.271408605519	54.8339323291291	
1047500000	-23.9889122930727	80.3223800003645	-1.51273678719232	-6.18491750704173	-1.50427095557597	-6.14060598895797	-22.6066709065917	58.232613063664	
1050000000	-21.401132248298	67.8531645066353	-1.53139409010123	-19.0918051978583	-1.52220582927431	-19.0504564245757	-20.588392796554	54.6771895291559	
1052500000	-19.7558994597775	55.3847950465789	-1.54509817660318	-31.9581500894161	-1.53673233581594	-31.9147014864173	-19.2056351470923	48.071531910586	
1055000000	-18.7500421760385	42.8915471838977	-1.55843762780864	-44.7845396346611	-1.54944152060586	-44.7412332075292	-18.3201803778426	39.957946113688	
1057500000	-18.2256295693978	30.403942258251	-1.56948825898237	-57.5827577607383	-1.5599860534984	-57.5441922366047	-17.8567443157354	31.1649251387085	
1060000000	-18.125602840642	17.9969314936976	-1.57034166772231	-70.3734215692594	-1.56264539991087	-70.3253612106907	-17.782147816571	22.0596828617629	
1062500000	-18.4320115112036	5.64443766289799	-1.56957936596941	-83.1670482295161	-1.56045692372846	-83.1233097699858	-18.0726003846904	12.9451374297105	
1065000000	-19.1629997697783	-6.60227044822286	-1.56149155570958	-95.980228286877	-1.55425763450031	-95.9350093405181	-18.7654081005484	4.1244320632944	
1067500000	-20.3917628581312	-18.6610887321264	-1.55013329956868	-108.831655290528	-1.54074495775799	-108.787094256731	-19.898381201924	-3.96749805222194	
1070000000	-22.2756344545831	-30.3097098603354	-1.53722923095127	-121.726060126838	-1.52652860572874	-121.675851521229	-21.5668576503184	-10.6518274123469	
1072500000	-25.1261765147076	-40.9301687949361	-1.52672763958532	-134.642335312792	-1.51848055594089	-134.592158539193	-23.9331203568572	-14.029064648718	
1075000000	-29.8409707765412	-48.1986486879189	-1.51963020306927	-147.58642582904	-1.51066937934802	-147.541045448173	-27.0817560874953	-9.87420216514903	
1077500000	-39.697836816784	-28.9926856846082	-1.51651693510584	-160.559856287099	-1.50843326102256	-160.512100688522	-30.0754537984075	11.7457486619142	
1080000000	-35.1308758694201	68.0297862837596	-1.52060296379629	-173.518087849465	-1.51364222783925	-173.470956563038	-29.3007445237416	43.214410347821	
1082500000	-28.4599267798163	69.09203255779	-1.52387927277389	173.526883385552	-1.515598814893	173.576316032799	-26.3765476161924	56.3464798880668	
1085000000	-25.1380013463183	59.9073106414342	-1.533340346352	160.601842869353	-1.52540370380016	160.648067105814	-23.9880679213448	56.8518350818293	
1087500000	-23.2450118559657	48.7275733572643	-1.54172191485886	147.704591509115	-1.53352930435045	147.750039836924	-22.3990454381231	52.5080027510061	
1090000000	-22.2238290775946	36.7771656286125	-1.54633299434952	134.827822856522	-1.53904713364449	134.866853439368	-21.4721547423666	46.2311092763621	
1092500000	-21.8771902889868	24.3269641152972	-1.55347773429859	121.968265675859	-1.54505091911999	122.008683488059	-21.0878072509724	39.2388104661542	
1095000000	-22.1365067468075	11.5849491402215	-1.55528374162089	109.103387494069	-1.54647841687601	109.142531653121	-21.204717967002	32.5936786148486	
1097500000	-23.0645469320214	-1.59530593200543	-1.55252342350627	96.2365638248469	-1.5447629732692	96.2751429371632	-21.8163858885115	26.893152438885	
1100000000	-24.859438305098	-15.379421739754	-1.54978725668174	83.3445567254609	-1.53941080756812	83.3846647995317	-22.9305631783825	23.5651606148704	
1102500000	-28.0228648551255	-30.5976441648128	-1.545135607474	70.433692964639	-1.53702236110865	70.4726192526956	-24.4808768265305	24.856315278371	
1105000000	-34.4478608642753	-52.3568808675761	-1.54419655063086	57.4890754089258	-1.53579862142875	57.5320262555536	-26.0444457236963	34.1499527535426	
1107500000	-42.2417790178767	176.48546939905	-1.54556342626725	44.5300464617485	-1.53767760047949	44.5625778694795	-26.3831400991689	51.4654708242637	
1110000000	-30.2445965177577	128.752498248204	-1.55327217683952	31.5784949880863	-1.54782924580684	31.6140040121195	-24.8032205016198	66.0923672072784	
1112500000	-25.1346856393063	111.371277229894	-1.56582178314482	18.6111658427797	-1.55669332757718	18.6481765173359	-22.6056632254331	71.5409407237124	
1115000000	-22.1015804386176	96.8691999900457	-1.58161243434206	5.68565001237842	-1.57311852607647	5.72708177147036	-20.6231102232617	70.2865911682517	
1117500000	-20.0846271863123	83.158458266205	-1.60075914459779	-7.20422910614066	-1.59130168733896	-7.16390018058723	-19.0838334336834	65.4958700926961	
1120000000	-18.728375827501	69.8314091027543	-1.61805458478643	-20.0634995622237	-1.60743485494285	-20.0268799763436	-17.9613691119474	58.7948413036806	
1122500000	-17.8726077445121	56.7066007958284	-1.6340106013074	-32.8680682635697	-1.62521546021582	-32.8267421663525	-17.2161724214379	50.9911570260576	
1125000000	-17.4208354954013	43.6887412028257	-1.64373849454266	-45.6482070823039	-1.63584706460758	-45.6074166295189	-16.8130329996423	42.7500737736625	
1127500000	-17.3510856977577	30.701877057548	-1.64839259657935	-58.4230030906754	-1.63979256556246	-58.3821971892581	-16.7349433616554	34.3073778876931	
1130000000	-17.6579305455787	17.6793019467196	-1.64675680227459	-71.2036679515703	-1.63667617886134	-71.1642174306584	-16.9810507791867	26.0337448279431	
1132500000	-18.3698642833393	4.56050683484202	-1.63719571576181	-83.9955208869758	-1.6281815041879	-83.9564739689056	-17.5617282012177	18.3031642519793	
1135000000	-19.573384232757	-8.78671331850329	-1.62506091636989	-96.8336778853642	-1.61503862961574	-96.7848604233779	-18.5063423073914	11.5626214015706	
1137500000	-21.4199776924974	-22.5170174281499	-1.60964688197949	-109.711754070556	-1.6020838498462	-109.668157894098	-19.8543562235618	6.7561966322464	
1140000000	-24.2657497136172	-37.1500880303606	-1.59497948361095	-122.610937433181	-1.58971822835035	-122.575783406706	-21.6036201565781	5.41568189969274	
1142500000	-29.1419326722229	-54.7016235338145	-1.58707325458246	-135.583613061175	-1.57898797469556	-135.541704073964	-23.5821320460345	10.3011027298479	
1145000000	-40.5794928269346	-101.918448355852	-1.58367559899761	-148.553693479611	-1.57542204123327	-148.509571266782	-24.9320142233584	23.9184912142681	
1147500000	-33.1712764034512	127.926000546063	-1.58615210562824	-161.529285620606	-1.57813447978452	-161.491629466914	-24.5286532881727	40.330797521471	
1150000000	-26.4599678763588	105.559624464538	-1.595952049131	-174.505294049076	-1.58628918017632	-174.469538699465	-22.8652210690407	49.6238809505035	
1152500000	-23.0158400926234	90.2023742376774	-1.60695973787096	172.581122868179	-1.59927264638389	172.61557316631	-21.1085690961739	50.9701434888964	
1155000000	-20.9183211217602	76.3328013042439	-1.6222636825821	159.687131283363	-1.61366985572281	159.720230472939	-19.7211800111623	47.6783065581218	
1157500000	-19.624391381534	63.0712923781375	-1.63481988617336	146.831034764196	-1.62735824058476	146.862318418559	-18.7721387267159	41.8086367967689	
1160000000	-18.9030791054762	50.188727248041	-1.64608980206487	134.01018671234	-1.63813186338092	134.036755368999	-18.2308698812729	34.5760232162287	
1162500000	-18.6563838733763	37.5307737937287	-1.65098950269511	121.198903495487	-1.64296136600022	121.231373473759	-18.0775028422125	26.7048245076416	
1165000000	-18.8541713212576	25.080517593711	-1.64936549322245	108.387408106854	-1.64182802774764	108.424546267707	-18.304725868158	18.591061243641	
1167500000	-19.517264485958	12.9329813711091	-1.64496819933407	95.5674911631337	-1.63720806570092	95.600029882668	-18.9451118939382	10.7341074457641	
1170000000	-20.7158142277885	1.09942635105838	-1.63384150441904	82.722162000577	-1.6259732787548	82.7631245647336	-20.0367083193931	3.70358125595257	
1172500000	-22.6313066390242	-9.93438401441769	-1.62484845002482	69.8264308317347	-1.6160796253955	69.8589713282917	-21.6889767925879	-1.54363915750316	
1175000000	-25.6671287066488	-19.2256122819801	-1.61526202308365	56.9007022236742	-1.60490918350137	56.9376085139389	-24.0210622802965	-2.69550188044504	
1177500000	-30.9466300995641	-22.1703403808837	-1.60852973593587	43.9457155754498	-1.59902307887122	43.985329012281	-26.932555903058	5.75087970668681	
1180000000	-39.7315339495447	30.9952338190644	-1.6089362637413	30.9566498559444	-1.59878238531349	30.9978616227112	-28.7160017473538	31.0077156895113	
1182500000	-31.2932028295217	89.1883489827461	-1.61103695208217	17.9961016597085	-1.60192491740821	18.0383868366311	-26.9055071887437	55.8166869182878	
1185000000	-25.9183630260652	86.9326449104086	-1.62043215064913	5.0345600352273	-1.61139684388768	5.08186369079798	-24.0307483650978	63.8760412638145	
1187500000	-22.8650414629062	77.7705383204784	-1.63345460803794	-7.89012517488199	-1.62431261208679	-7.84826476453637	-21.7560068704287	62.5744313011864	
1190000000	-20.9626309901406	66.8606742237713	-1.64705851549252	-20.7739995016803	-1.63871231852071	-20.7376512156403	-20.1577986989373	57.2020325307815	
1192500000	-19.7841814610495	55.2084547265071	-1.66088048175649	-33.6442829693319	-1.65180363962311	-33.5973855856246	-19.1061799506648	50.0405800335969	
1195000000	-19.1523423666603	43.2182084816774	-1.67146269355503	-46.4642918274741	-1.66142890609864	-46.4209344850211	-18.5248918508731	42.0212331277434	
1197500000	-18.9947352795163	31.0586835090462	-1.67535238156767	-59.2801014574147	-1.66709180743901	-59.2318756901854	-18.3514692669408	33.7275400431416	
1200000000	-19.2825510588709	18.7357776947118	-1.67293251166295	-72.0935000363811	-1.66375634016656	-72.0306703078839	-18.5698503996713	25.5869096052472	
1202500000	-20.0488923837477	6.4217405285845	-1.66880016335232	-84.9131917860033	-1.66082661631422	-84.8616997876795	-19.2082454777549	18.0358151153952	
1205000000	-21.3977051284582	-5.98905914701112	-1.65991061485786	-97.7661582855234	-1.65248770925939	-97.7132230072201	-20.2768161053225	11.7546286335432	
1207500000	-23.5580929560433	-18.382019555244	-1.64983275003265	-110.656369156507	-1.64128775554694	-110.605264689339	-21.8389675033522	7.8771539005978	
1210000000	-27.0880653932943	-30.5480617554006	-1.64271522699955	-123.584566878505	-1.6359467457309	-123.537862657325	-23.9034515603472	8.96998131619359	
1212500000	-34.1405718557621	-41.8696315367087	-1.63624709108106	-136.537270100147	-1.627827857934	-136.48116925248	-26.0349629592363	19.1943637990769	
1215000000	-44.2625943702117	114.057629744545	-1.63588875241885	-149.507046637821	-1.62778524934595	-149.449616067972	-26.7068466650192	39.4812386519437	
1217500000	-30.050460700658	108.224737748537	-1.64163738342184	-162.474226008592	-1.63345913164006	-162.421952246232	-25.0962155462522	56.1537284828236	
1220000000	-25.1617997588601	96.1572177932073	-1.65216481417851	-175.416524838298	-1.64285269149999	-175.367790337331	-22.854348282455	61.6734423051246	
1222500000	-22.36398932763	83.6440957995404	-1.6653832586705	171.648111060353	-1.65714778885438	171.700934202224	-20.9731794401268	60.2178717861139	
1225000000	-20.6093229265389	71.0312614884429	-1.68053790156091	158.762024718107	-1.67250097563638	158.814879461759	-19.5984846069995	55.1675693103488	
1227500000	-19.5241791188179	58.324847361279	-1.69322444398349	145.905209692903	-1.68550203185975	145.955773430638	-18.6894653331619	48.3633090280601	
1230000000	-18.9565346101292	45.5761076871492	-1.70124588995742	133.068297356516	-1.69330271188344	133.14568095423	-18.1731659645169	40.7267374542606	
1232500000	-18.839139716873	32.7858714232323	-1.70869539350607	120.271179945951	-1.7001426261499	120.32923142388	-18.0468719724665	32.8370692634238	
1235000000	-19.1524568423608	19.8804018806281	-1.70744659346977	107.462082263712	-1.69908058945041	107.525959862166	-18.2740740449568	25.0667141072544	
1237500000	-19.933777236591	6.8309829218264	-1.70182315159536	94.6364133714879	-1.69308237762045	94.6991267536634	-18.871344875995	17.8607132842752	
1240000000	-21.2762861603426	-6.44788045892953	-1.69527283412807	81.7867459168315	-1.68695554097624	81.8322366664562	-19.8678101595161	11.9105192808412	
1242500000	-23.4019790701326	-20.4574137730691	-1.68221332321956	68.8995893360433	-1.67186021898507	68.9648022402148	-21.2610233496957	8.23357924492511	
1245000000	-26.8216614222636	-35.8165099628819	-1.67232973217952	55.9790761570537	-1.66346457633561	56.052087388859	-23.0372682301048	8.77679707441553	
1247500000	-33.2276593351642	-57.2239219701106	-1.66616123706207	43.0374653863869	-1.65746102986251	43.1081734330305	-24.8170775230399	16.5626629983081	
1250000000	-42.3493973483406	-178.937729900878	-1.66506632827731	30.0831659983607	-1.65398062474638	30.1571674106738	-25.5662672680354	31.6890374819442	
1252500000	-30.4637378397942	125.52130749727	-1.66953959248109	17.1173941897304	-1.66035641084853	17.1893002860321	-24.5909512117496	45.952111385381	
1255000000	-25.5023221170904	107.58910984319	-1.6777730890835	4.17740312595354	-1.66898495349975	4.24274313186949	-22.8326196069092	52.0857705171666	
1257500000	-22.6790867635869	93.0904317423666	-1.68958305120967	-8.74502167114771	-1.68103942626143	-8.67149677768365	-21.1977235299931	51.6068758325555	
1260000000	-20.912748176147	79.5660090431554	-1.70149281549607	-21.6456303995906	-1.69298156033153	-21.5599135955288	-19.9542548086602	47.3206931899556	
1262500000	-19.8227370882492	66.5627209441937	-1.71453639112062	-34.4898639675304	-1.70660925307511	-34.4169135532376	-19.1376924033664	40.9525134560946	
1265000000	-19.2596623029482	53.8708444132651	-1.72308792815412	-47.3219415128816	-1.71520272984324	-47.2457967541053	-18.7191454276329	33.4737323336784	
1267500000	-19.1532835433186	41.4301734451218	-1.72669589773312	-60.1339498263971	-1.71896320806477	-60.0598700837371	-18.6805752086175	25.4403411461735	
1270000000	-19.4765006704231	29.2519448511816	-1.72743652039738	-72.9417608041777	-1.7204314896259	-72.8785420860579	-19.0326238705872	17.4009417279223	
1272500000	-20.277334333469	17.378355426214	-1.71999426055838	-85.7851592203168	-1.71159539797718	-85.7069449201191	-19.7888955010253	9.64583119059189	
1275000000	-21.6464802969891	6.05756319632456	-1.71116338713874	-98.6436337054846	-1.70330230644664	-98.5635379050922	-21.0286619057332	2.95814623543722	
1277500000	-23.7927777895816	-4.18475445056551	-1.70058006988775	-111.533113677168	-1.6935946355275	-111.460005616415	-22.8598041065011	-1.497328012095	
1280000000	-27.210951574914	-11.6006155260701	-1.69071074156025	-124.463803373513	-1.68318892691727	-124.379637551692	-25.3904095281611	-0.890388099470133	
1282500000	-33.1860981736058	-7.16513014676557	-1.68775656027877	-137.411267004924	-1.68028410836237	-137.338153966219	-28.3166246091394	11.7706373593216	
1285000000	-37.5245435040541	64.3098473049569	-1.68696363834154	-150.372917543822	-1.67979038189563	-150.302135660312	-29.2150308957155	40.0050674966985	
1287500000	-29.8392255763961	93.2192365351941	-1.69161403433632	-163.333232076309	-1.68361348155145	-163.257765698509	-26.7835635723579	60.4988259967177	
1290000000	-25.4470565125761	89.6048941515221	-1.70075910396987	-176.284711585038	-1.6918388651632	-176.208931132353	-24.0046183333834	65.2223020185394	
1292500000	-22.8035429117825	80.5770186922835	-1.71195955094697	170.801928805726	-1.70483639684136	170.881834736779	-21.9381587114789	62.4623056337042	
1295000000	-21.1406977790484	69.8922626147089	-1.72443927761526	157.914407884295	-1.7177830960594	158.000502549125	-20.5117777533322	56.4094705584606	
1297500000	-20.1420562065303	58.5867129198256	-1.73536344480677	145.062424583813	-1.72792750207742	145.142774066815	-19.6231254956705	48.8827362558795	
1300000000	-19.6559464052236	46.9440494013975	-1.74306843705298	132.241989602446	-1.73875704351033	132.326427972862	-19.1845293061519	40.7443958630359	
1302500000	-19.6411166933835	35.217084222483	-1.74629535383205	119.406950310383	-1.73905357225732	119.496123158014	-19.156806998577	32.3158976066289	
1305000000	-20.0825750691133	23.4739171044361	-1.74489815262775	106.583197584182	-1.73777702056299	106.674456660089	-19.5462600046434	24.219335504747	
1307500000	-21.0410224837713	11.8754331309565	-1.73901237367442	93.7420648154681	-1.73169514756695	93.8338217144953	-20.3708462017424	16.8815435290315	
1310000000	-22.6626361327678	0.718740216784016	-1.72940701641169	80.863370043929	-1.72274733218182	80.9593603941273	-21.7025049802964	11.1230026858097	
1312500000	-25.2445935714988	-9.4214110317694	-1.72255106388286	67.9659036419515	-1.71635146396605	68.0629043432145	-23.627702152417	8.77360591529622	
1315000000	-29.6470476832773	-15.8465448317154	-1.71649361950892	55.0286691691227	-1.71002099542626	55.1269169184193	-26.0938543217353	13.6714568612791	
1317500000	-38.7813657119964	4.92833441739668	-1.71401259387753	42.0667059997041	-1.70707996503921	42.1700377454789	-28.108373451812	32.0188321182144	
1320000000	-34.2911515409125	97.3754020016833	-1.71808575669308	29.0993049274617	-1.70900511241287	29.1973674345357	-27.3348807767266	56.4717440471217	
1322500000	-27.4308589432198	99.5862310662955	-1.72311562899551	16.134968419276	-1.71681303602355	16.2413661183689	-24.7518944164483	68.4889110112941	
1325000000	-23.7735946104965	90.9776177900331	-1.73504385434356	3.19532371438667	-1.72848311404494	3.29871015409372	-22.3489200030188	69.5292938916422	
1327500000	-21.4896018034062	80.0776928753722	-1.74983005632915	-9.72347481760356	-1.7443713866489	-9.62122727849458	-20.5416784280697	65.4361546336548	
1330000000	-20.0071469352497	68.3667076576723	-1.76354828047188	-22.5930090136604	-1.7606449554106	-22.4797452245783	-19.2678325648763	58.9326395189184	
1332500000	-19.1002387603438	56.3297789674322	-1.77819031676555	-35.4413430817563	-1.77276257762138	-35.3370229354644	-18.4501837832111	51.1361250326937	
1335000000	-18.6532843006154	44.0453978448108	-1.78772507411936	-48.2555552270643	-1.78200951788963	-48.1508726630316	-18.0199248994332	42.8643521933316	
1337500000	-18.6211412042716	31.5677459548429	-1.79154113854152	-61.0607540871823	-1.78576153344695	-60.9501098271271	-17.9506689075418	34.4606152011449	
1340000000	-18.9980605199473	18.9678730754295	-1.78969769630037	-73.8636926045849	-1.7839459723797	-73.7680260588221	-18.2384124199908	26.2741946252453	
1342500000	-19.8211767533768	6.19441161794644	-1.78396746672541	-86.6758314157144	-1.77852872876345	-86.5723515402096	-18.8858972818987	18.7564414939583	
1345000000	-21.19664620388	-6.79295072775939	-1.77445541242994	-99.5160154977901	-1.76871684734638	-99.4142463427942	-19.9403940945087	12.3998709849759	
1347500000	-23.3480756501568	-20.1736307818897	-1.76364702243811	-112.40440347324	-1.75779208990657	-112.300256830525	-21.4462247266067	8.36506163571745	
1350000000	-26.7954942724109	-34.2109953655205	-1.75510501397043	-125.315429136883	-1.74689974502211	-125.21274207685	-23.3772060208096	8.72397693478964	
1352500000	-33.4063776575947	-51.0937310607902	-1.74613671563716	-138.265866872789	-1.74091510577977	-138.162702269368	-25.436998221131	17.1984335616879	
1355000000	-45.866379236847	156.950184525779	-1.7450225036975	-151.237312296407	-1.73904130919042	-151.12796537563	-26.3430612553903	35.0468456732886	
1357500000	-30.5877422189507	115.867578781412	-1.74909911727179	-164.20336990604	-1.74292980334361	-164.098223103796	-25.1471923900128	51.7429380088669	
1360000000	-25.4996859884976	100.335436667936	-1.75598594133792	-177.160204339814	-1.75183464591882	-177.039794670866	-23.0796538887504	58.6993598264764	
1362500000	-22.6217525486509	86.4145473824336	-1.77197355430782	169.907369391335	-1.7645434933319	170.016435440044	-21.2315740181505	58.1705703228967	
1365000000	-20.8122164782589	72.875504042609	-1.78645460902267	157.010114278057	-1.77932371964425	157.116588457362	-19.8309503025073	53.9033980456553	
1367500000	-19.6764844858026	59.3912670056009	-1.80066589964492	144.142048035954	-1.79248485571853	144.255787663319	-18.8649209340484	47.6683467504621	
1370000000	-19.056425746091	45.950973402781	-1.81298793945866	131.305684620409	-1.80405291106367	131.407048755161	-18.290438629237	40.4618390395651	
1372500000	-18.8647821404249	32.3866369897942	-1.81899414355929	118.495872097158	-1.81091229159888	118.612617059292	-18.0530491981377	32.88833149543	
1375000000	-19.085382529431	18.6495414643557	-1.82085677527559	105.686050502985	-1.812655963906	105.807652215088	-18.1587555595509	25.3727717928595	
1377500000	-19.7280911228714	4.58462693971965	-1.81832708327812	92.8741755583779	-1.809596201713	92.993156403052	-18.5857343100766	18.3093661594277	
1380000000	-20.8597657156534	-10.0900607001598	-1.81127657784381	80.0453096551077	-1.80220887173215	80.1611527571898	-19.3376823320459	12.2167862131636	
1382500000	-22.6036105268225	-25.8520016854111	-1.80130880472622	67.1707039401198	-1.79303470684254	67.2900343234386	-20.4324711752429	7.91567640043706	
1385000000	-25.2415780224347	-44.1492870439061	-1.79344320453508	54.2726689839973	-1.78349282615451	54.3906482797503	-21.8141640965529	6.55285373678064	
1387500000	-29.3443366389382	-69.7683469493474	-1.78410575896575	41.3455698839485	-1.77591708013522	41.4633428221444	-23.2938087898803	9.85784182010405	
1390000000	-34.6184133963689	-124.471752704461	-1.77930077438549	28.3940975956841	-1.77018507047806	28.5213299239001	-24.3494767254805	18.8974300056302	
1392500000	-31.9090473818893	159.393155313149	-1.78083200169593	15.4477671685778	-1.77153383056379	15.5612904446011	-24.3304294282826	30.3099710186634	
1395000000	-27.0774977353292	125.279394994938	-1.78538740519124	2.50146294131983	-1.77635040745789	2.6115056978129	-23.3087095101898	38.4722050441892	
1397500000	-23.9969645202496	104.582391732252	-1.79493366884999	-10.4307493222753	-1.78566591634785	-10.3177115871753	-21.9635843979468	40.897453925209	
1400000000	-22.0136589693652	87.824191826552	-1.80787490672832	-23.3352858495717	-1.79819334355262	-23.2297494083046	-20.7841327194705	38.9915877027555	
1402500000	-20.7525086445323	72.5998339920927	-1.81736048146999	-36.2074629091658	-1.80831578596488	-36.095400427703	-19.8990032786363	34.4407807562877	
1405000000	-20.0426823036515	58.1467478538433	-1.82595642459078	-49.0545812574916	-1.81742780714256	-48.9446088066128	-19.3600639801228	28.3248446281146	
1407500000	-19.790796860038	44.0364630692019	-1.83318912307696	-61.8832987903647	-1.82368085034112	-61.7713101743364	-19.1638218249851	21.3944604848011	
1410000000	-19.9711522250086	30.1407626285953	-1.83393188695591	-74.6970251344065	-1.82555807689019	-74.5909654627997	-19.3005934591248	14.1874034540212	
1412500000	-20.5868988269964	16.2859747805783	-1.83280547638106	-87.5369623464856	-1.82352408285857	-87.4258142307906	-19.8045884603461	7.16921268471963	
1415000000	-21.7217123500138	2.32496479220543	-1.82636446443348	-100.384936279917	-1.81793542366471	-100.27993886937	-20.6750628132213	0.901087453998743	
1417500000	-23.5070453473479	-12.0418436934753	-1.81955556061283	-113.253437715589	-1.81015438477851	-113.144184009716	-21.9633308641279	-3.77989318402768	
1420000000	-26.2936061951517	-27.3513355729539	-1.81196798531964	-126.165067687455	-1.79981569990293	-126.044175902311	-23.6779141576163	-5.23385396237663	
1422500000	-31.036098924566	-46.2929158755993	-1.80480497351997	-139.080525463888	-1.79544998968081	-138.969190451986	-25.6611953690409	-1.06460057126013	
1425000000	-41.3655072532017	-95.9065646343099	-1.80209223556901	-152.024968795766	-1.7928758807391	-151.920451431318	-27.2128070238172	11.8318232118776	
1427500000	-35.1896361633128	143.04469443981	-1.80201738628194	-164.976809740056	-1.79217610587733	-164.865244927955	-27.0905913216471	29.1613958728172	
1430000000	-28.5922686841491	117.973459382972	-1.80698661210571	-177.922100962885	-1.79927280270368	-177.809892708656	-25.5242343478582	40.0837119775555	
1432500000	-25.1645785715043	101.578683953804	-1.81406949747972	169.143823843594	-1.8039480694975	169.261556432049	-23.7273717770087	42.6374439103637	
1435000000	-23.0850767302789	87.1368628481317	-1.82307600537931	156.230835032795	-1.81297138441094	156.360579472451	-22.3086844787565	39.9518091474425	
1437500000	-21.8315593212736	73.4645462087442	-1.83216767149691	143.35352543129	-1.82224092247115	143.473974088049	-21.3391554514027	34.4728881063056	
1440000000	-21.1649361900076	60.2560205026652	-1.8382531266016	130.500218468303	-1.82895397784727	130.614504876303	-20.8058047328862	27.4887138041549	
1442500000	-21.0055770316941	47.3367671854757	-1.84440148687675	117.641014097208	-1.83421637349293	117.766774573601	-20.7052818518431	19.9166289072227	
1445000000	-21.3370861499259	34.7942797660038	-1.84461896463564	104.792515689201	-1.8337204068654	104.929711511729	-21.0202833106475	12.1392376535339	
1447500000	-22.1956969008566	22.6196784046502	-1.84091906825319	91.9449366814937	-1.83150649707834	92.07848032754	-21.8031049905463	4.76390326987904	
1450000000	-23.7223007681493	11.1787465315374	-1.83873909981916	79.0714215296625	-1.82444252318865	79.2025204694635	-23.1363502699824	-1.27902507960373	
1452500000	-26.2174853798157	1.30357830845711	-1.82989223755392	66.1829318507207	-1.8206099600433	66.3127408335413	-25.1659076043775	-4.65225712551271	
1455000000	-30.4745292257763	-3.78317687930325	-1.82392957377598	53.2618055621766	-1.81499443892592	53.3913707780445	-28.01829914126	-0.647635412691531	
1457500000	-38.4285311898433	21.1203446294704	-1.82106902602077	40.3144911376072	-1.81267013877961	40.4428454813359	-30.8070586799061	20.5519583852531	
1460000000	-34.318765513115	98.6625936977831	-1.82158306802031	27.3562567285385	-1.81702611084113	27.4945179766348	-29.8478160104227	53.121234645322	
1462500000	-27.8839117669369	102.979815983678	-1.82858899925836	14.3915261706212	-1.82057817692559	14.5213884545815	-26.4108207516195	66.5640777923693	
1465000000	-24.244319849827	95.0061195390119	-1.84058356967039	1.44594507480656	-1.83101675616704	1.56548198854981	-23.5576832876927	66.875265388431	
1467500000	-21.9107270553588	84.2587309118568	-1.85397519879404	-11.4792477326755	-1.84583297815714	-11.3458563475705	-21.4725784862501	61.8981628583332	
1470000000	-20.3584085671542	72.4924255351905	-1.86885260424578	-24.3706823780034	-1.86059920139603	-24.2429409957453	-20.0072144132688	54.5371042075526	
1472500000	-19.3603217197753	60.1966375709997	-1.88547092233536	-37.2229357165918	-1.87693384106828	-37.0871709782473	-19.0216001574336	46.1932874443126	
1475000000	-18.8019860449111	47.5917861993858	-1.89671148422303	-50.0539450800922	-1.888890427184	-49.9126725685277	-18.4345849416555	37.2734837861411	
1477500000	-18.6257288228616	34.7991747004805	-1.90500788999626	-62.8524066436426	-1.8969208826599	-62.7067783506605	-18.1985503400811	28.2413115035858	
1480000000	-18.8276881806932	21.7502879964416	-1.90947260250063	-75.6539413518292	-1.89734386253559	-75.4998680786324	-18.2940769643677	19.3355704499505	
1482500000	-19.4230972791454	8.44242346490524	-1.9033270825606	-88.4444797773024	-1.89364548810195	-88.305078619618	-18.7367184037154	10.7573087602987	
1485000000	-20.4661608713207	-5.23424258068063	-1.89568347842224	-101.27313006671	-1.88383121657806	-101.130802526932	-19.5223402092561	2.88303194619902	
1487500000	-22.0675281220618	-19.5271997565605	-1.88439739948056	-114.118488843437	-1.87388123346497	-113.978553242906	-20.698838851926	-3.70138910458387	
1490000000	-24.4625222359179	-35.0495170114285	-1.87172332755277	-127.000516552084	-1.86466821801685	-126.854247426156	-22.3113237165723	-7.90681153857669	
1492500000	-28.2157807699036	-53.7568380574279	-1.86291768694795	-139.926858044624	-1.85172310964621	-139.78292879222	-24.3201846802696	-7.50701397566358	
1495000000	-34.821387284815	-86.9814104587728	-1.85729200332045	-152.876992634803	-1.84291283426009	-152.718890551073	-26.3900931237335	0.675791559343486	
1497500000	-37.5269025194862	168.408945623776	-1.85346193922514	-165.829688883862	-1.8422060826849	-165.672838895066	-27.3348555420833	17.6874514351723	
1500000000	-30.056675336297	122.113820897201	-1.85529061188363	-178.786494283482	-1.8415551713385	-178.630545664523	-26.2910971049262	33.2035840306847	
1502500000	-26.017735072712	101.44883247391	-1.86251463901285	168.276978374801	-1.85094456777883	168.436327473577	-24.5012921995142	39.6069514927099	
1505000000	-23.6365648181567	85.1436267619804	-1.87168945493872	155.353998025911	-1.85959517651982	155.520823745722	-22.8813934527077	39.0795119903525	
1507500000	-22.1984840468028	70.3976584421376	-1.8812275562625	142.466759484224	-1.86973386922621	142.628318336445	-21.7272305199034	34.7731938401709	
1510000000	-21.4222410053303	56.2129437718172	-1.89232140650965	129.602792932094	-1.87890563640865	129.753778670029	-21.0284519834224	28.7500442904771	
1512500000	-21.2000616278701	42.4357827378206	-1.89547409898461	116.74966335436	-1.88429913547499	116.91030319548	-20.7692985300149	21.7171628236138	
1515000000	-21.4997301409857	28.7451705355575	-1.89768166749058	103.909470843084	-1.88572995995547	104.067598523548	-20.9297988792809	14.7232138345141	
1517500000	-22.358585288091	15.1180573483319	-1.89440304311503	91.0498492965104	-1.88307648630973	91.2114008779189	-21.5286965324544	8.25559852404249	
1520000000	-23.9317814232458	1.30076975260488	-1.8880758375975	78.1788380904554	-1.8789656035623	78.3500656673082	-22.5940712660638	3.27241192264341	
1522500000	-26.5701834748939	-13.2071147394232	-1.8829994364012	65.2787132659634	-1.87192052040732	65.4312907947855	-24.1074108214762	1.64965059566193	
1525000000	-31.3468449585315	-30.0625164898408	-1.87759692534696	52.3547079474537	-1.86607487418505	52.5056248170178	-25.9680761297847	6.18320533921311	
1527500000	-44.3791921611739	-75.3212450123913	-1.87563263367782	39.3992444549815	-1.86484178135689	39.5509904214342	-27.3584055205295	20.0895459646569	
1530000000	-34.3873445503192	144.06340890122	-1.87686767037259	26.4219455429185	-1.86662483796351	26.5734163293264	-26.83152698532	38.3327967339344	
1532500000	-27.5245599079604	124.434552344634	-1.884692290666	13.4781728315601	-1.8744106473073	13.6301367605515	-24.8428118222477	49.0586994724497	
1535000000	-23.906462845141	109.532235388858	-1.89628013052255	0.53082262321397	-1.88542836312921	0.688314875303119	-22.7362884886459	50.7387343858581	
1537500000	-21.6127538156888	95.7552068295793	-1.91043714596316	-12.3788654665316	-1.90011580885135	-12.2246157273425	-21.0403863198693	47.2729137140289	
1540000000	-20.1124983773892	82.446162568359	-1.92718430649638	-25.2411887156782	-1.91565980978935	-25.1063564134164	-19.7962254573532	41.1478194835639	
1542500000	-19.179244413245	69.4294886390686	-1.9404816959376	-38.1001354776022	-1.92905779206449	-37.9457628991231	-18.9831520327058	33.4223355693518	
1545000000	-18.7030263006383	56.5480715779278	-1.94980778097453	-50.9120676495489	-1.93841453689695	-50.7552540473652	-18.5488856252569	24.9971837425847	
1547500000	-18.6439270171239	43.9246831106289	-1.95395975001813	-63.7104202365011	-1.94279526240659	-63.5542081501291	-18.4980673474446	16.2628299139823	
1550000000	-19.0120993134188	31.4465657457798	-1.95120846106906	-76.5133596448483	-1.94128124199741	-76.3268412711092	-18.8235040837202	7.5178358180332	
1552500000	-19.8545669456517	19.1012191245401	-1.9448235042867	-89.3240543735808	-1.93292706298497	-89.169700612552	-19.5427469012797	-0.608628735250829	
1555000000	-21.2858799231718	7.07218795892687	-1.93336563512701	-102.174468003362	-1.92169159892352	-102.023863707492	-20.741157026312	-7.6701036640324	
1557500000	-23.5725669895111	-4.33745663080116	-1.92217797746938	-115.072753797323	-1.91008943715722	-114.920708535142	-22.5301175215982	-12.3270481848548	
1560000000	-27.3903363637671	-14.0360687684444	-1.91038373428238	-128.020267092769	-1.90057508267999	-127.884195733296	-24.9901905626424	-11.3524211117293	
1562500000	-35.4118085387103	-13.5772910638514	-1.90562651770837	-140.98700085765	-1.89325620741432	-140.833124432456	-27.7388280897809	2.0070754187665	
1565000000	-37.3679872303144	104.91437658407	-1.90561407624233	-153.978340594549	-1.89424550873345	-153.825905393587	-28.1270373405991	29.621104512758	
1567500000	-27.8736081381053	110.866362636326	-1.91354754499307	-166.971220136102	-1.9015050817815	-166.81424636084	-25.4862227676013	47.3637917947224	
1570000000	-23.5204878797486	101.953739597738	-1.93058383492291	-179.92605510951	-1.91508654615794	-179.77871096946	-22.6924568554171	50.3384803681727	
1572500000	-20.8865732768538	91.1325925459226	-1.94702907542333	167.124491508204	-1.93459759356743	167.286342799568	-20.5853379315105	46.0386233489176	
1575000000	-19.1692577278282	79.7780120257174	-1.96636874278658	154.242418329636	-1.95363411550101	154.403376341385	-19.1058173673976	38.7135028101928	
1577500000	-18.0551371565243	68.3877879455146	-1.98497801568901	141.405723297632	-1.97320243439821	141.56792193593	-18.1292561251641	29.7324039039685	
1580000000	-17.4160270607772	57.1044422170995	-1.99634401122021	128.602481137646	-1.98962705109321	128.800535273967	-17.5940781856694	19.8327434212452	
1582500000	-17.19058616459	46.0577494236986	-2.00604147754614	115.845291739376	-1.99422333722973	116.009823175402	-17.4444484811503	9.52604563228452	
1585000000	-17.3429678234676	35.4457081825106	-2.00479432436978	103.082413682338	-1.99282950278019	103.23822071466	-17.6967305941968	-1.22509967432671	
1587500000	-17.8860058153376	25.5366119226967	-1.99610657794641	90.2926667608974	-1.98504801272315	90.4499954521177	-18.3892105008269	-12.2203942183621	
1590000000	-18.8652774443252	16.7745727425489	-1.98199921744194	77.4656278463516	-1.96809535160615	77.5911198288043	-19.6068963017743	-23.3144059526221	
1592500000	-20.3550084079153	10.1110061748661	-1.96532184337196	64.5864820439141	-1.95382014410065	64.7413877314656	-21.5550726123837	-34.7102760552738	
1595000000	-22.4231401786953	7.74438005623624	-1.94804539324657	51.6599978333069	-1.93794692042851	51.8057023490172	-24.7170410843159	-45.8439374220787	
1597500000	-24.8839480364364	14.2183218364623	-1.93870484939477	38.6649401230792	-1.92707149269586	38.8282929571841	-30.7089453145985	-56.4158591637412	
1600000000	-26.2921791323855	34.3389389795242	-1.94297049223198	25.6634303830011	-1.92911201888913	25.8323425889484	-53.4635098540739	83.5525535894532	
1602500000	-24.754619990387	54.2482644758433	-1.94201994707012	12.6118584589558	-1.93022405555714	12.7942695916981	-29.5011686999259	95.5416109384496	
1605000000	-22.1529262674843	60.8816382967418	-1.96005089557217	-0.377674826579446	-1.94820872384065	-0.196939886312061	-23.9091142607838	84.7686143522876	
1607500000	-19.9445249498087	58.4555711228203	-1.98013876239959	-13.335928806135	-1.96914995846066	-13.1538232627936	-20.761286578818	73.3774840078948	
1610000000	-18.3210716768785	51.8644646439412	-2.0055709846658	-26.2308406283939	-1.99461218884337	-26.0561784780108	-18.7397660745493	61.9513783123707	
1612500000	-17.1969364795443	43.1557873865355	-2.03081617129743	-39.0674383460879	-2.01958672276752	-38.8860100958518	-17.4201850097748	50.6548498319174	
1615000000	-16.5043029985571	33.3886105374251	-2.05138731879339	-51.8429997614138	-2.03933191257351	-51.6644671929672	-16.5998064888567	39.5119921291032	
1617500000	-16.1973544517426	22.909340282087	-2.06291435892567	-64.5761638965081	-2.05050782618332	-64.3975545577347	-16.1951840135251	28.6422139579606	
1620000000	-16.2533848862591	12.0933635961786	-2.06499415000199	-77.3019454016799	-2.05036658210827	-77.1283029811188	-16.1667576338186	18.1046518666126	
1622500000	-16.6940515493945	1.03470970518267	-2.05776795639555	-90.0383221451782	-2.04401485438128	-89.8642784849771	-16.5101244663832	7.98767814024158	
1625000000	-17.5606493316497	-10.0483724003277	-2.04337831795203	-102.808535168403	-2.02869170789835	-102.636472176411	-17.2517532307463	-1.4737568493957	
1627500000	-18.9692361784884	-21.0099943309899	-2.02159470250073	-115.639520620342	-2.00840400176715	-115.467583497438	-18.45524353968	-9.75135806794014	
1630000000	-21.1465171277448	-31.5278530914237	-1.99971058754589	-128.538467317934	-1.98806688537055	-128.362467067545	-20.2228688629827	-15.8064344519238	
1632500000	-24.6079830713186	-40.4719831104823	-1.98052279099284	-141.502417640355	-1.96833161162279	-141.322520328858	-22.6742549897799	-17.0418920464111	
1635000000	-31.0530831514731	-41.9819056433679	-1.96993385146613	-154.501082500433	-1.95734259458302	-154.330947144178	-25.6087053590802	-7.37442545993527	
1637500000	-38.7666029276189	49.5522692580158	-1.96578574095216	-167.538824446374	-1.95498644361622	-167.362521286901	-26.9068870938053	18.6506825959959	
1640000000	-28.0169992096733	79.559903767912	-1.97260804815855	179.431980774013	-1.96216884056435	179.619879538029	-24.7367170436299	40.0203924972499	
1642500000	-23.2166246518561	73.3232951843776	-1.98917482485009	166.4425360567	-1.97762878747993	166.625001240713	-21.9523158336649	45.3250475032929	
1645000000	-20.4485790995433	63.3659622210539	-2.00905119803144	153.506610271531	-1.99808464551545	153.691258234583	-19.8031218671647	42.3682407780824	
1647500000	-18.7114449808288	52.4300742862691	-2.03184484441381	140.629265993328	-2.02063907474487	140.808445008262	-18.3144847775141	35.8439556352874	
1650000000	-17.6336127215148	41.1566402334733	-2.05020195603641	127.805550996798	-2.04005508465564	127.988229633953	-17.3596817604556	27.7181661237645	
1652500000	-17.0771037380914	29.7831132885713	-2.06407241725569	115.037025863268	-2.05202500432114	115.21335584993	-16.857134262697	18.7645570387604	
1655000000	-16.9613335643674	18.4959005467526	-2.06860149536449	102.28376735688	-2.05654128921072	102.460044578563	-16.7704851702026	9.53760629148633	
1657500000	-17.2747540705781	7.39644662323779	-2.06325723015867	89.5183273941267	-2.05220579485691	89.7031225164795	-17.0887118906122	0.31746034919569	
1660000000	-18.0578149408414	-3.38387956312577	-2.05281516466567	76.7359025928305	-2.04038274556118	76.9154163216462	-17.8536822999592	-8.56462062438181	
1662500000	-19.3990883182067	-13.468662869305	-2.03442554605427	63.8844094515009	-2.0229602486574	64.0653144018705	-19.1417896444501	-16.4930719338925	
1665000000	-21.5027946128979	-22.0394835010862	-2.01625095900313	50.9819561981503	-2.00473414566001	51.1631751756651	-21.1015157521633	-22.3601038026383	
1667500000	-24.779134973825	-26.5124223444545	-2.00078189620803	38.0132765582115	-1.98972950646703	38.1982356419716	-23.9792900699286	-23.0854752654172	
1670000000	-29.9283633299506	-15.7559825433723	-1.99111074998213	25.00105633842	-1.98068341378829	25.1944142666855	-27.6924734597587	-9.33574876531108	
1672500000	-31.8891515553006	39.3472542961764	-1.99161355584948	11.9783305124067	-1.98028592725937	12.1683501797572	-28.6708249616003	28.2596331102511	
1675000000	-26.3714883895262	64.0082034196481	-2.00052633519821	-1.04519642160379	-1.98962322509767	-0.852289373602176	-25.1156658629383	50.5388979547155	
1677500000	-22.488108306069	62.6760747280622	-2.01687880807664	-14.0346579915787	-2.00669188632843	-13.8455119027095	-21.8433705852307	53.0801590938004	
1680000000	-20.0173173474373	55.1102146416297	-2.03917849723957	-26.968134230168	-2.02555240570311	-26.792756736266	-19.5666612725014	48.6158511406289	
1682500000	-18.4214018903893	45.3528338639947	-2.06186573487647	-39.848282288211	-2.05091080892596	-39.6537130715978	-18.0347367869881	41.3299445970147	
1685000000	-17.4437836111795	34.6754352145771	-2.08186650393567	-52.6645249121069	-2.06895410099711	-52.4709945927313	-17.069373675232	33.0357003515602	
1687500000	-16.9633561854208	23.5347162046072	-2.09329140576878	-65.4419287769123	-2.08055048314684	-65.2448754931255	-16.559699081502	24.3074826518266	
1690000000	-16.9360000271078	12.1108861135145	-2.09878731465148	-78.1971748404326	-2.08573028218829	-77.9809752331157	-16.4596570897545	15.5907118461351	
1692500000	-17.3581775706481	0.533043592530953	-2.09196140648086	-90.9602136997784	-2.07903622012523	-90.7592358185473	-16.7529280213001	7.29182279848085	
1695000000	-18.2847687083617	-11.1290270089668	-2.07817247522535	-103.764075488186	-2.06611339341766	-103.557081963671	-17.4553897944954	-0.141575632745252	
1697500000	-19.8636091513378	-22.8572038837691	-2.06062521392121	-116.612615029714	-2.0493827143078	-116.410568995193	-18.607755270572	-5.92189900800284	
1700000000	-22.4067310692731	-34.4060258530028	-2.04140708490671	-129.536555677638	-2.03178501830746	-129.328917033512	-20.2212736104134	-8.44276220517184	
1702500000	-26.8425132947482	-45.1307577485336	-2.0292942947283	-142.502116608497	-2.01687808812882	-142.291147320555	-22.2052801556722	-4.90142025312913	
1705000000	-38.0187333543147	-47.7083189587157	-2.02191504629627	-155.511272386531	-2.01116651217364	-155.307870699658	-23.7734153296749	8.3739348995365	
1707500000	-33.056624040071	99.138972459296	-2.02593812169048	-168.539861825642	-2.0140089953677	-168.334399420865	-23.4634567601672	26.8387187845704	
1710000000	-25.0887170874528	91.3376903764852	-2.03922920344584	178.449976346586	-2.0249062123236	178.637398936363	-21.5628114452823	37.8559500422496	
1712500000	-21.2405739195839	80.2418008336	-2.05888029348406	165.471846850666	-2.04791856037324	165.672350129097	-19.5139835759124	39.6205243853123	
1715000000	-18.8827129806268	68.6898987704166	-2.0838251745814	152.551548109315	-2.07296733946184	152.758438526256	-17.8760992657272	36.1377695997036	
1717500000	-17.3742338144631	56.9892545773423	-2.10989455469419	139.712610504271	-2.09665449846352	139.897114773226	-16.7118074292794	29.921805886263	
1720000000	-16.4578670144558	45.4000546655794	-2.13101952073279	126.929558804593	-2.11815025696366	127.11708752644	-15.9776222120848	22.2439567048291	
1722500000	-16.0077842617296	34.001394887024	-2.14256073552846	114.181800523198	-2.12926346626048	114.351809098265	-15.6370001647893	13.8879321373648	
1725000000	-15.9950053303183	22.8221981435637	-2.14392346001056	101.459201227743	-2.13217258635024	101.626061201132	-15.6790979616708	5.17441974946718	
1727500000	-16.4077916027515	11.9647635723273	-2.13615827945363	88.7149131882523	-2.12376035046956	88.8882058036728	-16.1144395982567	-3.4875295642737	
1730000000	-17.2967538536242	1.69089136721286	-2.11902500018602	75.9180071858705	-2.10768341141923	76.1000856439839	-16.9920851544262	-11.6901742965335	
1732500000	-18.7805249483862	-7.43333280339659	-2.09749278336751	63.0809203658454	-2.08412763064459	63.2596569389616	-18.414669604442	-18.746280293163	
1735000000	-21.062392208825	-14.2041797258215	-2.07452255035145	50.1516208903245	-2.06165342336571	50.3372057820799	-20.5398713786177	-23.0832553049188	
1737500000	-24.5614748288476	-14.3429964063387	-2.05725016149462	37.1617246489538	-2.04398053067252	37.3425938915301	-23.5734364469779	-20.5335356731222	
1740000000	-29.029628983517	7.933116043294	-2.0483168485125	24.1197405551539	-2.03559321994152	24.2902426105233	-26.8468880615804	0.0733578406158494	
1742500000	-27.8170338285336	54.068679527524	-2.05058354366928	11.0542032433103	-2.03975256821509	11.2334499505122	-26.0937787219496	35.2313246599803	
1745000000	-23.2449382931548	67.2534073000179	-2.06577561718584	-1.98633771126322	-2.0537294427914	-1.8144935728767	-22.5386557447002	49.7721938391036	
1747500000	-20.0095120545496	64.5850397781001	-2.09055086271239	-14.9844875980625	-2.07779745523198	-14.8099967794104	-19.6349102741119	49.8264376630414	
1750000000	-17.8553635527384	57.1230507666801	-2.12029276542414	-27.8967592516637	-2.10772271510919	-27.7144321602462	-17.5991056903422	44.4015477954172	
1752500000	-16.4195626150628	47.8055035230024	-2.15267451513608	-40.7387954897825	-2.13881411932807	-40.5655750841737	-16.2117974989669	36.817323312302	
1755000000	-15.5261934494143	37.68660482127	-2.1788958603375	-53.504358980739	-2.16597285338472	-53.3295085731732	-15.3347613183054	28.1893755508316	
1757500000	-15.0785192236819	27.1903743060325	-2.19528561431651	-66.2082076750787	-2.18291518046943	-66.0349221525877	-14.8806288562703	19.1372657664482	
1760000000	-15.0267732309869	16.5337134557932	-2.20186874077617	-78.9074492813241	-2.18884318705076	-78.722112574277	-14.8086429233685	9.99536794495808	
1762500000	-15.3738898898874	5.90708459281492	-2.19206830903949	-91.5910344444831	-2.18095764150566	-91.4049053143024	-15.1161394739066	1.04523081203314	
1765000000	-16.1576055046813	-4.52258213040604	-2.17401363470681	-104.319033512999	-2.16272897605199	-104.139597486759	-15.8203797690835	-7.37802137217949	
1767500000	-17.4653066654202	-14.437174587153	-2.14819945270348	-117.125950995678	-2.13728750154502	-116.944489288475	-16.9820989033605	-14.754249139164	
1770000000	-19.4845169080607	-23.1159069356327	-2.11972791389652	-130.014942972122	-2.11075394381693	-129.83842367826	-18.7029354775214	-19.9700216791862	
1772500000	-22.6061239023416	-28.5514236858508	-2.0968285097179	-142.985243045568	-2.08509024665312	-142.807145924458	-21.0760403796074	-20.5065295729581	
1775000000	-27.6063385153619	-22.2351807600811	-2.08085304410392	-156.012782800562	-2.07025562621724	-155.842182447667	-23.8579356831125	-10.4387833583188	
1777500000	-31.396921247354	29.7200199846041	-2.07566438343802	-169.07544467094	-2.06520748761581	-168.908862015825	-25.0810304624994	14.8142190500455	
1780000000	-25.8367451057842	63.897123546978	-2.08286774546553	177.866895453818	-2.07055727768751	178.030888423557	-23.0510061080258	35.9873620762068	
1782500000	-21.5872543705004	64.4302986701837	-2.10307248250761	164.839057403161	-2.09172957545347	164.999569203454	-20.3438797044062	41.8951942706704	
1785000000	-18.9502296217173	57.5368261589567	-2.12991868733853	151.885673924331	-2.11747858988369	152.043881118959	-18.2365635200803	39.6077348002781	
1787500000	-17.2649796376209	48.3040664293637	-2.15740187259811	139.00577366491	-2.1464325014964	139.166100684379	-16.7690010817914	33.7637330736207	
1790000000	-16.22874900563	38.1076714717865	-2.18383391324423	126.19681389107	-2.17205116534425	126.365202450167	-15.8283523311285	26.3194738624318	
1792500000	-15.7001915602338	27.5460000965196	-2.19729789502214	113.45538700969	-2.18668180214191	113.619594931984	-15.3319788852454	18.1890467862557	
1795000000	-15.6202007835147	16.7672347862449	-2.20363543511529	100.734112159644	-2.19252310590164	100.903293101854	-15.237445286461	9.85530522451268	
1797500000	-15.9833603051138	6.0171296886993	-2.19786924652461	88.011858525778	-2.18594305672065	88.1800134134781	-15.5285750038463	1.73347980645779	
1800000000	-16.826285001006	-4.57396346661023	-2.17993592285163	75.2539631528116	-2.17278448123292	75.4183549201773	-16.2277841181253	-5.70070817239722	
1802500000	-18.264617387819	-14.715964603466	-2.16004603039042	62.4256825981714	-2.14843210188984	62.6020485608728	-17.3716564150762	-11.7261945465116	
1805000000	-20.5455833641384	-23.6471794678424	-2.13599023154754	49.5273878019606	-2.12553869969081	49.6994559548541	-19.017341528078	-14.987427229852	
1807500000	-24.2512259360503	-28.9928889218189	-2.11664191783907	36.5539913151177	-2.10528223812826	36.7187502678135	-21.1161786880924	-12.6069826128427	
1810000000	-30.8962215371112	-16.9411787750381	-2.10409924476534	23.5266378226622	-2.09011939165737	23.6844082790751	-23.0578470147145	-0.282077399096531	
1812500000	-31.7512870422777	60.8748411176897	-2.10504088801325	10.4662550188581	-2.09344528877502	10.6294557344751	-23.1730916686102	19.9738249440319	
1815000000	-24.6950742992039	77.7931709498525	-2.11684627354922	-2.58296410161587	-2.1049533349668	-2.41264124413938	-21.308404091871	33.5910474168472	
1817500000	-20.7307584754247	73.2521260032841	-2.13788985813363	-15.5837804826092	-2.12592443067106	-15.4133341027	-19.1501528932707	36.8163798762416	
1820000000	-18.2944592090532	64.6009591838258	-2.16808220831531	-28.5211001438013	-2.15552455408346	-28.3424097756688	-17.4213161992261	33.9492933409221	
1822500000	-16.7290493399596	54.7398453866083	-2.19371278597491	-41.3748434182173	-2.18151573173083	-41.2000619631504	-16.2037706222624	28.0484107789617	
1825000000	-15.7778431571838	44.4080718839323	-2.21734765780826	-54.1608178491813	-2.2058954299855	-53.9828744241925	-15.4403373534381	20.6059258149701	
1827500000	-15.310047209307	33.9673934430016	-2.23209990077811	-66.8885692612288	-2.22093527632615	-66.7125185744371	-15.084326922007	12.37771053207	
1830000000	-15.2654106175055	23.6243394875022	-2.23432655456513	-79.6017836452782	-2.22570561953607	-79.4226923330504	-15.1194749294498	3.85402685748455	
1832500000	-15.6504480123197	13.5808174912174	-2.22738903387865	-92.3205034824164	-2.21615583233697	-92.1373109675565	-15.5519931022614	-4.63746337139572	
1835000000	-16.4927136005171	4.14996440231447	-2.20878334321547	-105.088284893317	-2.19747960139845	-104.906595131867	-16.42599410989	-12.5925468321678	
1837500000	-17.884898413653	-4.07132324940787	-2.18423482939974	-117.925683779449	-2.17289396810484	-117.747487836231	-17.8313314287261	-19.3496482066387	
1840000000	-19.9999624992239	-9.74360210197137	-2.15894394348564	-130.845708612542	-2.14523048392887	-130.668685185666	-19.9129592362148	-23.3447100027811	
1842500000	-23.0702052506019	-8.9649903066028	-2.13987977848915	-143.839233816129	-2.12736356799399	-143.656613240391	-22.8141791445594	-20.4064234614974	
1845000000	-26.6505282678124	9.43906261200797	-2.12841208892421	-156.87575613108	-2.11595646187245	-156.700384259816	-25.7920378777905	-0.933385740173998	
1847500000	-26.3369344901864	46.6239513520062	-2.12995679419413	-169.940851338011	-2.1172947594701	-169.766577118442	-25.2242140853748	31.3449615207142	
1850000000	-22.6472908348455	62.5132447957109	-2.14414851544146	177.018366989169	-2.13338521282149	177.1919594204	-21.9997002745996	45.8589629315166	
1852500000	-19.641139665094	62.3778382741505	-2.16748478252927	164.011705406893	-2.15524113110072	164.187249680433	-19.2564852380689	46.4904286529535	
1855000000	-17.5707952973989	56.4834165599169	-2.19860801051074	151.092235555572	-2.18569261732901	151.257114033671	-17.3078802934725	41.5362593782908	
1857500000	-16.1904137446804	48.2728160055122	-2.2283680699372	138.243432347105	-2.21590936893259	138.412883020081	-16.0001201483124	34.2257438390136	
1860000000	-15.3446786040163	39.0447393826585	-2.25289650839874	125.470255939634	-2.24079453423677	125.639667653833	-15.1981562959938	25.8824517958092	
1862500000	-14.9526043856684	29.3490138453713	-2.26874451500432	112.761783221595	-2.25559163575713	112.924712419547	-14.8254208518339	17.0612266151297	
1865000000	-14.9646509859831	19.529172523997	-2.27195401198386	100.067598427095	-2.25894562347284	100.232532279808	-14.8501126538822	8.18287225166713	
1867500000	-15.3897448348374	9.82137939655349	-2.26254897617754	87.3558656097016	-2.24970466122497	87.5270594487754	-15.2662247963691	-0.469439034562187	
1870000000	-16.2668781956214	0.524264058918935	-2.24353128689578	74.5936091598459	-2.22961638734536	74.7630332755581	-16.1098079832364	-8.49017188977554	
1872500000	-17.6886764852447	-7.79741673674496	-2.21846964219563	61.7692529554384	-2.20519686829826	61.9411297550558	-17.4470611219751	-15.0982646271528	
1875000000	-19.8484367415974	-13.9059737053446	-2.19303177250412	48.8554440972616	-2.17810963233082	49.0340854289423	-19.396180738941	-18.8906379490103	
1877500000	-23.0399765945062	-14.2382976710474	-2.17102080995495	35.8681573853157	-2.15608733150507	36.0394513903237	-22.000741712016	-16.2279260500647	
1880000000	-27.1325102437444	2.94816171947188	-2.15859371430844	22.8386775407224	-2.14432845252432	23.0089232988842	-24.575233708197	0.0254054459683828	
1882500000	-27.2875340158025	44.7730366415183	-2.15770679545546	9.75872561453694	-2.14330438436608	9.93301328002922	-24.4550596044565	27.220836228083	
1885000000	-23.2668104168629	63.1509973044291	-2.16994229208871	-3.29475533308183	-2.15495908006306	-3.12052523067031	-21.8419146616371	42.1183551849947	
1887500000	-20.0763883212517	63.1478660050407	-2.19119247151823	-16.3013345130004	-2.17732041567264	-16.1225518280693	-19.3232458180265	44.0774652328792	
1890000000	-17.9465948413652	57.1368132311577	-2.21881568150589	-29.2427396486676	-2.20367512169918	-29.0521964934097	-17.483266722827	40.0950163699104	
1892500000	-16.5660644578349	48.8722106712848	-2.24460886712151	-42.0828781491362	-2.23038366956401	-41.9105519805169	-16.2460513453079	33.4539078533445	
1895000000	-15.7541753809327	39.6183108706181	-2.26513438783438	-54.863237483857	-2.25285799695683	-54.6862684195963	-15.506256694824	25.6205458205819	
1897500000	-15.411990408695	29.9205709554436	-2.27748150612794	-67.5992065829274	-2.26474225381028	-67.4210821613914	-15.2019213260255	17.3054684122902	
1900000000	-15.5122106094151	20.1437606791963	-2.27756121951904	-80.3151552958698	-2.26576271725846	-80.161161155342	-15.3052801304646	8.91428712780383	
1902500000	-16.0550375386762	10.5464227916979	-2.26786955748003	-93.0574475211774	-2.25535714386198	-92.8815853844036	-15.8183356475246	0.960823667196798	
1905000000	-17.114207088295	1.47483830894454	-2.24839858874211	-105.848469980324	-2.23652001229535	-105.680324613302	-16.7842898807717	-6.04197018194103	
1907500000	-18.8256467062363	-6.32004452693708	-2.22527621520116	-118.712662594304	-2.21283200302528	-118.544603958817	-18.272947715515	-11.0394582400175	
1910000000	-21.4662081256774	-10.9244524528815	-2.20466355423518	-131.644379862233	-2.19006965190985	-131.472737768918	-20.3415949800074	-11.7442704503902	
1912500000	-25.4784095292528	-5.68671890483341	-2.1874032788316	-144.672348110093	-2.17216710316636	-144.509125982469	-22.780151480447	-3.51179477283983	
1915000000	-29.1326451855303	30.4427272233746	-2.1805284378713	-157.731521675313	-2.16854874753932	-157.564391973668	-24.0418487295003	17.7099489533054	
1917500000	-25.6163035147814	68.4696185675731	-2.18931611500229	-170.802690254805	-2.17562792469956	-170.633670211311	-22.5031872779201	38.1341298446628	
1920000000	-21.4388444546407	74.5164678506089	-2.20761754152335	176.13938018116	-2.19541778226575	176.321231288696	-19.9919377339039	45.3915458584222	
1922500000	-18.6443506585456	70.1771524577814	-2.23619838912544	163.176779784714	-2.22212396938157	163.346649390989	-17.88315854572	44.0411396397051	
1925000000	-16.7860788677071	62.4717495614195	-2.26702115746671	150.27614743006	-2.25351759258412	150.443344972664	-16.35493640671	38.716124642992	
1927500000	-15.5890554438606	53.4508716404785	-2.29551387817092	137.461291370088	-2.28307710665321	137.625974516778	-15.3399821277536	31.4035382103433	
1930000000	-14.8977148386467	43.872894576195	-2.31790423958921	124.719152978217	-2.30540939102718	124.868641329779	-14.7643362090809	23.1460123069156	
1932500000	-14.6353205433809	34.1198858763811	-2.32986761395342	112.015572462434	-2.31775654098228	112.182753714484	-14.5843081098731	14.5221392806293	
1935000000	-14.7759876085707	24.4673903494903	-2.32827962386082	99.3287891116326	-2.31626687669579	99.4941567456562	-14.7875876889064	5.8188486323993	
1937500000	-15.3314601984085	15.133885066722	-2.31498326376036	86.6106404219034	-2.30198067815882	86.7696522157961	-15.3967315172321	-2.60852304098958	
1940000000	-16.3580693825513	6.52239951470008	-2.29154968915491	73.8480342865022	-2.27869589004302	74.0168641764009	-16.4611162734518	-10.1813546747416	
1942500000	-17.9688612598562	-0.512497028463544	-2.26405919628794	60.9794071038624	-2.25126079110803	61.1386432181987	-18.1027552665335	-16.054786362078	
1945000000	-20.3389378942222	-4.05236755600451	-2.23762125372687	48.0256901540299	-2.22490147497199	48.1996017273738	-20.4518288356274	-17.9049567792234	
1947500000	-23.6065372145332	1.43742864405997	-2.21761271146152	35.0091814008258	-2.20563084298303	35.1808246843557	-23.472872252036	-10.0212013197628	
1950000000	-26.3074722862412	27.9314445408448	-2.2103751072555	21.934005509778	-2.19817093123057	22.1033118969593	-25.4027285471638	16.131384104793	
1952500000	-24.3682364932753	58.9731182864269	-2.21474949733941	8.85881172451155	-2.20224225406057	9.03364170792208	-23.4301411451395	41.9749755412278	
1955000000	-20.9447424773895	67.9828160106459	-2.23246969621866	-4.19089309033628	-2.22079777443974	-4.01745528683048	-20.3868590973796	49.6429456070988	
1957500000	-18.3523172833102	65.7416065017241	-2.26023498861076	-17.183649605235	-2.24858453932848	-17.002290473242	-18.0336704236692	47.6076899623361	
1960000000	-16.5763161840451	59.3165383480023	-2.2930979499642	-30.0883099313137	-2.28079167900476	-29.9166201668726	-16.3905038739705	41.6013607212099	
1962500000	-15.416753830435	51.0640993217483	-2.3239765286209	-42.9054764964363	-2.31270293217413	-42.7259023671972	-15.3089015668071	33.8460812523184	
1965000000	-14.7433325576482	41.9917130379208	-2.34819564358745	-55.650514407024	-2.33608823815	-55.4704176591808	-14.6926090928234	25.2586858839023	
1967500000	-14.4927342310088	32.5550164261587	-2.36013585240082	-68.3475683187191	-2.34883646664358	-68.1614173874212	-14.480240102066	16.3351287576401	
1970000000	-14.6390737552443	23.086340395497	-2.35859484421288	-81.0232259014272	-2.34627442914779	-80.8324693519774	-14.6536570111771	7.45282334240672	
1972500000	-15.1973512652411	13.8445641169152	-2.34622358135255	-93.7385641972937	-2.33364967802973	-93.5537105680934	-15.233883481195	-1.1062188048966	
1975000000	-16.2204146611467	5.19134994225916	-2.32308763926058	-106.504827175907	-2.31147559968504	-106.318199194385	-16.256758538133	-8.81415325871482	
1977500000	-17.8235109557708	-2.0842056504346	-2.29495879589089	-119.360464274034	-2.28356672802964	-119.165097429864	-17.8081950160211	-14.8235296908448	
1980000000	-20.1972665882094	-6.24012359330817	-2.27044167927576	-132.302089938493	-2.25754940409638	-132.108242771229	-20.0171188684384	-17.0809083493369	
1982500000	-23.5776779753221	-2.20167023512162	-2.24725130236372	-145.315302553668	-2.23446713440948	-145.112469531038	-22.8212350235017	-10.8620470214269	
1985000000	-26.825309358932	23.6298586905291	-2.23553579137623	-158.373774561823	-2.22482608601254	-158.187757631403	-24.8738645808061	11.276093851345	
1987500000	-25.1107165772067	58.6941673102175	-2.23904145904475	-171.458438458676	-2.22616755062953	-171.262004902805	-23.5146926642299	36.6802599859633	
1990000000	-21.4573085723582	69.3100898553467	-2.25370489617636	175.485507677708	-2.24231519321423	175.685898815441	-20.7044620055913	45.9637188194148	
1992500000	-18.7353263521788	67.4302287625997	-2.2790646380711	162.494226654655	-2.26573803785965	162.692409490871	-18.385623723082	44.9619919973666	
1995000000	-16.8913005985683	61.1093831099092	-2.30808738569289	149.57661162062	-2.29585745034566	149.779535153691	-16.7529672566707	39.465032253431	
1997500000	-15.6984043180476	52.9409456710719	-2.33644345095037	136.744619588003	-2.32400102166047	136.947772811648	-15.687338660162	31.9583920378817	
2000000000	-15.0146847106598	43.9672658170222	-2.35706791520715	123.994653090839	-2.34379310379643	124.195677884556	-15.0888008008376	23.4894419758477	
2002500000	-14.7652648439401	34.7105629507593	-2.3690453852803	111.282429298553	-2.35715880129391	111.48309584887	-14.9187784468258	14.6107240091117	
2005000000	-14.9241836951987	25.4553890962668	-2.36879723324729	98.5869944289963	-2.35594810202583	98.7849832120162	-15.1454969953592	5.71804003278512	
2007500000	-15.5087274381134	16.5278988582511	-2.35536546758377	85.8595235492699	-2.34256499699663	86.0574211692528	-15.794839572908	-2.84685336228879	
2010000000	-16.5667947930234	8.40985852671615	-2.33656814129742	73.0728042449104	-2.32146963229474	73.2758293505703	-16.9321240845811	-10.5054247739319	
2012500000	-18.2150650160278	1.9785131294043	-2.30784546623351	60.2088960314487	-2.29475605753766	60.4118192380471	-18.6619401288781	-16.2931437712463	
2015000000	-20.6295951343671	-0.517602062411863	-2.28434100337427	47.2483443812112	-2.26936756606407	47.4591469058112	-21.1552113112064	-17.5893474952628	
2017500000	-23.8499867676584	6.96635111678679	-2.26527947859298	34.2274509659086	-2.25107012393642	34.4329170800856	-24.3164734594479	-7.80292910718889	
2020000000	-26.0297263567305	34.9258166646816	-2.25720967200701	21.1509909791714	-2.2436929249004	21.3614951523329	-25.8739337682152	21.3880836763792	
2022500000	-23.7895117841163	62.6928558516233	-2.26464335000689	8.07314496574722	-2.24924122413424	8.28098589155008	-23.3383135932979	45.5543838598482	
2025000000	-20.5302390413239	70.2056320441941	-2.28403458250957	-4.97641920106687	-2.26845196595361	-4.77252737488145	-20.2509428284445	50.8855407643879	
2027500000	-18.0694097407514	67.7216319663087	-2.31115890774825	-17.9710447710316	-2.29644821853019	-17.7654886205469	-17.9465052103889	47.619893266341	
2030000000	-16.3693375814519	61.3288638340711	-2.34305031961151	-30.8780475138479	-2.32766292850473	-30.6697111490269	-16.3577215328819	40.8199095230128	
2032500000	-15.2495219024759	53.2657644278304	-2.37613316760631	-43.6922111530672	-2.36124172876452	-43.4854573184835	-15.3347543301879	32.4504914477524	
2035000000	-14.5961418697288	44.433878582779	-2.39933888802104	-56.4306634696666	-2.38495654778623	-56.2213748342215	-14.7593602455104	23.3092030864334	
2037500000	-14.3530033944025	35.297726513626	-2.41382200781631	-69.119973581215	-2.39778037808326	-68.9086134801615	-14.5883504786431	13.8169678530837	
2040000000	-14.4846579376538	26.1834653904105	-2.41506079888594	-81.7878317308479	-2.39818238355307	-81.5802841406073	-14.8056860859668	4.26545151536033	
2042500000	-15.0090346649039	17.381316727701	-2.40057561994708	-94.4880614475185	-2.38440388596479	-94.2780205390426	-15.4219629699164	-5.11468394222622	
2045000000	-15.95960024118	9.29957893644354	-2.37806559069502	-107.244082350024	-2.36211368193936	-107.031557224997	-16.505362066641	-13.9274659249382	
2047500000	-17.4162217281445	2.72133183762977	-2.35001352654549	-120.074921276644	-2.33321015383505	-119.865199170069	-18.1820741324248	-21.5176527166508	
2050000000	-19.5152736140537	-0.720265762925337	-2.32000903609302	-132.993300780847	-2.30383095410851	-132.786266925129	-20.6607896255406	-26.1674485329368	
2052500000	-22.2733744134014	3.08206924348213	-2.29748130229128	-145.990765211772	-2.2808157613145	-145.781750647032	-24.2495315906821	-22.620148586834	
2055000000	-24.7682993073281	21.9421354335663	-2.28486535717568	-159.039032374622	-2.26857415998555	-158.837022779429	-27.9242203736312	4.50768131228324	
2057500000	-24.1262467188847	49.2877884008021	-2.28373197350984	-172.117084536842	-2.26831919811455	-171.915569564148	-26.0077159594482	42.7806873431151	
2060000000	-21.3644371916756	61.8329936939108	-2.29595024431437	174.818894060636	-2.27981553782738	175.019629891686	-22.1052881391138	53.1112561650008	
2062500000	-18.9126170953581	62.3533900745487	-2.31860434510573	161.813037964132	-2.30338030778168	162.014414492194	-19.3209455097841	50.6717657681937	
2065000000	-17.1541535624938	57.5709702747603	-2.34708198397386	148.888407733546	-2.33007425733151	149.084597265536	-17.4656124652779	43.8648164457608	
2067500000	-15.9956832549571	50.3874570214385	-2.37459241084734	136.028229357536	-2.35744084975305	136.234983123017	-16.2830671894391	35.3250762206916	
2070000000	-15.3235185176518	42.1261688383962	-2.39693642735658	123.254580562707	-2.37991331497741	123.458275616989	-15.6198249813304	26.0496044310384	
2072500000	-15.0781374442708	33.4156714717075	-2.40910833034442	110.512570325229	-2.39190247283705	110.722458981314	-15.406475145982	16.4590981644843	
2075000000	-15.2359979935922	24.64063237678	-2.41045695437644	97.7889160711209	-2.3938018776686	98.0054960537261	-15.6104398870614	6.92755336781149	
2077500000	-15.815178228882	16.190154103639	-2.39999319838652	85.0541300928936	-2.38330358790761	85.2632130307923	-16.2538257252894	-2.23417505999513	
2080000000	-16.8739011536993	8.61183561900705	-2.38037153314399	72.2605340343017	-2.36334288416569	72.4703050676014	-17.3994782038596	-10.5712925254539	
2082500000	-18.504715239499	2.88455540616928	-2.35642152815944	59.3983804317427	-2.3395168778949	59.6057999058842	-19.1657179493967	-17.0528365130583	
2085000000	-20.8483192128883	1.40424601851291	-2.3330470517573	46.4536699127299	-2.31645464357316	46.6628804754373	-21.7689303425746	-19.2492334442175	
2087500000	-23.8087787547116	10.0339015797176	-2.31614425958798	33.4319213580305	-2.29970122532205	33.6392471172466	-25.2467130966164	-9.87662785582823	
2090000000	-25.4859574084983	36.5269684151719	-2.30937383184386	20.3627958430976	-2.29320053454666	20.5719427167545	-27.0855935280294	22.5334041816021	
2092500000	-23.3413242392415	61.0816635525221	-2.31415844636348	7.28548293634823	-2.30003972287851	7.49882371678573	-24.1430415828465	48.6109402994039	
2095000000	-20.3093586285274	67.8589095407944	-2.33224918054991	-5.75618428724051	-2.31658602136417	-5.5499305560119	-20.7790822091034	53.3861649968797	
2097500000	-17.9690030937066	65.5153784520161	-2.36153357793448	-18.7460326052851	-2.34506332917002	-18.532284546431	-18.3578660815676	49.3539955758546	
2100000000	-16.3165396689591	59.3204948296032	-2.39416038703918	-31.65014449417	-2.37922150126618	-31.4275813743516	-16.705748131109	41.935869321058	
2102500000	-15.2133381485027	51.4305128822048	-2.42597992264722	-44.4720048022371	-2.41102609453161	-44.2478702198091	-15.6273460636147	32.9988791255928	
2105000000	-14.5571636215972	42.7471112591726	-2.45351852097101	-57.2165376398213	-2.43584105374994	-56.9881024636314	-15.0177581631719	23.3488188406887	
2107500000	-14.2877205931322	33.7174456947741	-2.46736268231672	-69.8934381467267	-2.4513076086936	-69.6694559156739	-14.8128325225217	13.3530698450862	
2110000000	-14.3882958562905	24.6819755999245	-2.46946445927947	-82.5643321845477	-2.45405182709224	-82.3392616110817	-14.9984805384932	3.26462283062645	
2112500000	-14.8594511692397	15.9262131131604	-2.45747731523745	-95.2524456124906	-2.44233252225817	-95.0279036360488	-15.5825072241467	-6.75354129754379	
2115000000	-15.7341376885481	7.89723603966598	-2.43540185902791	-108.002292264858	-2.42035592904565	-107.771796119152	-16.631527501989	-16.4221281795846	
2117500000	-17.0759591584694	1.2536679287839	-2.40687202288433	-120.826175863558	-2.39093059639116	-120.592472872579	-18.2736634586603	-25.2481221660704	
2120000000	-18.9914678191236	-2.56966998430373	-2.37695643557692	-133.740651415805	-2.36239187878437	-133.505944141304	-20.7596276758171	-31.902975163991	
2122500000	-21.4981311009856	-0.144573888839323	-2.3522913687688	-146.741235742332	-2.33784953868477	-146.505663421615	-24.6186380292552	-32.2457702371265	
2125000000	-23.9297479580501	14.8764352598428	-2.33717493677575	-159.802783390547	-2.32175453109032	-159.567333668757	-29.9097619983993	-7.15526788584986	
2127500000	-23.8940196249272	39.8319749084171	-2.33447463613758	-172.891255552128	-2.31987697674504	-172.655085571834	-28.0889250496016	46.0594427249278	
2130000000	-21.4891768821665	54.1872431907492	-2.34501904416786	174.031552787491	-2.33129388769634	174.270033195357	-23.0904304903343	57.6895104077089	
2132500000	-19.0708024020842	56.2187542071123	-2.36805270328207	161.001298493311	-2.35388583540488	161.242867175427	-19.8519733425277	54.0969303095358	
2135000000	-17.253718148702	52.2093531194787	-2.39901098028604	148.056813371985	-2.38239868681659	148.297354353033	-17.7579966013564	46.3007009450514	
2137500000	-16.0061715256197	45.419394540578	-2.42918836175741	135.192498493537	-2.41473544800359	135.43802876003	-16.4153190527966	37.009564127025	
2140000000	-15.2352474226715	37.3025774650376	-2.45655475368472	122.40893526609	-2.44074922087149	122.653576875243	-15.6186501098665	27.0483548945806	
2142500000	-14.8833095673393	28.5672435544603	-2.47343323716857	109.68133893903	-2.4582792257726	109.932870956958	-15.2707234232881	16.8558673942725	
2145000000	-14.9130205463492	19.6153443434792	-2.47831697886264	96.9843414943811	-2.46310185046848	97.2438959460617	-15.3246464313892	6.62935905095589	
2147500000	-15.3328150337428	10.7764124001018	-2.47106751049344	84.2811257238582	-2.45575003181405	84.5497816638773	-15.7928743668309	-3.3598111641652	
2150000000	-16.1756167847143	2.44536045724212	-2.45251807897213	71.5404752934212	-2.43716509654053	71.8038228130736	-16.7188064867024	-12.8702371306148	
2152500000	-17.5247365161363	-4.71919520439122	-2.42691364166632	58.71468432891	-2.41139113500234	58.988046145668	-18.2056447386844	-21.298665835673	
2155000000	-19.511577054582	-9.32060425540768	-2.3991805189851	45.8116536253799	-2.3833878924597	46.0814090994959	-20.4629113880548	-27.3192773338576	
2157500000	-22.2508989129177	-7.7662358996939	-2.37523315433897	32.822326883039	-2.35958538091641	33.08195915914	-23.8102775308636	-26.9363065611498	
2160000000	-25.2053938890928	8.35392280047341	-2.35979070167865	19.7566360791442	-2.34487335430153	20.0165515030223	-27.9365689136081	-6.20568203820101	
2162500000	-25.1916214823077	38.8522152045385	-2.3590013120709	6.67055588029909	-2.34375700540433	6.9243294163506	-27.1724361679284	36.771416217921	
2165000000	-22.1805797381867	55.0283615034912	-2.37252057660773	-6.41530588544956	-2.35652116678532	-6.14406233195692	-22.9072714209464	51.5902879417601	
2167500000	-19.3951320856752	56.4719613264057	-2.39764363445447	-19.4515852053037	-2.38115346517193	-19.1871318702103	-19.7344713607928	50.0631621092393	
2170000000	-17.3597033108619	51.6196435848876	-2.43071889607005	-32.4145669174703	-2.41425659711181	-32.1451960204067	-17.5839891036895	43.340883969554	
2172500000	-15.9523350801907	44.0548227704031	-2.46713080445712	-45.28326006235	-2.45040661921402	-45.0138419858523	-16.1416940084381	34.5914348493682	
2175000000	-15.0507883580521	35.2723189381232	-2.49903808407854	-58.0663770087183	-2.4819896002185	-57.7938564242507	-15.2239691779261	24.9529145764237	
2177500000	-14.5590787505967	25.8190643031566	-2.52339485856472	-70.7704088795077	-2.50620188153675	-70.5007122829479	-14.7249152951535	14.92727159495	
2180000000	-14.4309384697263	16.101176434925	-2.53497046267216	-83.4338189224687	-2.51767874955395	-83.1605701549207	-14.5952847145267	4.77270094647545	
2182500000	-14.6585455277807	6.26930833476134	-2.53236836027566	-96.0879419155826	-2.51484733891012	-95.8146020227842	-14.8173906146626	-5.32516361537699	
2185000000	-15.2531672045012	-3.45884936282183	-2.5166926881208	-108.770510722371	-2.49846642321566	-108.491925378978	-15.4145439962464	-15.1880511315013	
2187500000	-16.2700882519876	-12.8290457227489	-2.49010036106131	-121.519215440855	-2.47180465013502	-121.238052808096	-16.4228682939808	-24.5645867778224	
2190000000	-17.8048072406297	-21.2639675716448	-2.45780591535483	-134.3477560936	-2.43972728511305	-134.062967325239	-17.9385144803859	-32.8522926972003	
2192500000	-20.0384912905475	-27.6643642195262	-2.42586313863479	-147.261485846705	-2.40781554627355	-146.973447159998	-20.1237004728796	-38.8495501211422	
2195000000	-23.2706368334876	-28.739689302796	-2.39954414830331	-160.245321025544	-2.38136796545731	-159.956606706268	-23.2291702047782	-39.2153299754675	
2197500000	-27.467068177774	-13.6729236390542	-2.38245893068077	-173.296836443515	-2.36467094378306	-172.997487290369	-27.0583852694547	-23.8113400894335	
2200000000	-28.2759379165937	27.8290721397592	-2.3773873217667	173.636460771608	-2.36039476313123	173.939884391055	-27.6596981581671	13.5658308607511	
2202500000	-24.3896838217494	48.42596451448	-2.38550787970193	160.58563026561	-2.36771106593674	160.891877479765	-24.1766953668876	32.9836881473191	
2205000000	-21.2053019081237	49.1660347712691	-2.40330570186874	147.575906065738	-2.38371151701805	147.87747122763	-21.1632733051706	34.2180413549177	
2207500000	-19.0868949401954	43.3824388168795	-2.42512026364085	134.628247315492	-2.40642790322524	134.934765388428	-19.1181653289006	28.9806594584185	
2210000000	-17.7497894125114	35.0987279535405	-2.44751954841208	121.754716209575	-2.429445296378	122.063056171019	-17.8022856361195	21.2653168175038	
2212500000	-16.9895186830444	25.7546137548187	-2.46614202905109	108.93597916071	-2.44803454259327	109.250460306193	-17.0343786895835	12.5225084665534	
2215000000	-16.7052222857221	15.850520950001	-2.4770570905629	96.158110576802	-2.45890769224709	96.4793255961365	-16.7260024044284	3.35642272747889	
2217500000	-16.8676231813435	5.79321886794441	-2.47792255332359	83.393447234047	-2.4598983936074	83.7170543964781	-16.8407535320012	-5.83330684563688	
2220000000	-17.4834613176493	-4.2010393476946	-2.47001100285365	70.61570519476	-2.45226926338247	70.9389750850694	-17.3800849438409	-14.6540312039679	
2222500000	-18.6196733914193	-13.8088932471241	-2.45272434744519	57.8003480917376	-2.43584150833927	58.1238901696562	-18.3809024671441	-22.5449060971943	
2225000000	-20.4363043174805	-22.3669213974002	-2.43323293419881	44.9273207726847	-2.41696823396061	45.2603300106544	-19.9196510976404	-28.5435485430426	
2227500000	-23.258915511098	-28.2063660055753	-2.41386481886467	31.9880601659173	-2.39787165826246	32.3180008917931	-22.0971048961521	-30.4925774937637	
2230000000	-27.7903328855858	-24.9318205716613	-2.39926767014272	18.9944751076618	-2.38362250482911	19.3297785178443	-24.7965276592557	-23.4175606017746	
2232500000	-32.7321973912174	17.4279941384752	-2.39393299424591	5.96582154739404	-2.3790319353304	6.29516530255979	-26.4866867432889	-1.33756824171684	
2235000000	-28.0151202164616	61.9864725335491	-2.39965547988444	-7.07246816088269	-2.38328153198243	-6.74572500463427	-24.9632659876111	21.6280875642257	
2237500000	-23.36234876043	65.9298880384001	-2.41363827818651	-20.0789700409241	-2.39696250299002	-19.7585345347594	-22.2504740796394	29.6216571837008	
2240000000	-20.4580170483454	60.2551339556072	-2.43337772926625	-33.0410763613457	-2.41676026727937	-32.7284663332451	-20.0204962654728	28.0043940163194	
2242500000	-18.5922578862583	51.7204964470879	-2.45616105799976	-45.9487765699404	-2.43926022088443	-45.6320627957462	-18.4350107095132	22.1368860664023	
2245000000	-17.4138903008752	42.1462730565295	-2.4780209023298	-58.7920505906918	-2.46084905317968	-58.4710289561682	-17.3904066400839	14.3105858057128	
2247500000	-16.7513191962336	32.1387252194742	-2.49346512934961	-71.5785385223024	-2.47773976975087	-71.2625024047114	-16.8071087448498	5.46259522768304	
2250000000	-16.5293999103964	22.043688271609	-2.50191355672161	-84.3285218663726	-2.48575899912676	-84.0198212906612	-16.6412766039008	-3.81280115256622	
2252500000	-16.7270193603149	12.08632536394	-2.49960732432945	-97.0904512163599	-2.48375905237371	-96.77077787362	-16.8685311334008	-13.1477517531801	
2255000000	-17.3505893848466	2.5635106113868	-2.48862191722786	-109.862857769708	-2.47281510425805	-109.543656572703	-17.5274395515372	-22.2595313654067	
2257500000	-18.4695486116804	-6.06914653894472	-2.47145850742057	-122.6754899973	-2.45562990758124	-122.363245386658	-18.6859580142299	-30.6735163484054	
2260000000	-20.1905462705506	-12.9046771741747	-2.44997171820707	-135.557626038224	-2.43559459026195	-135.244389441005	-20.4871271662407	-37.4175453226126	
2262500000	-22.7051162506745	-15.6063359858869	-2.43146321820582	-148.502038336015	-2.41790677104304	-148.192062271674	-23.1571750166334	-40.1583715181176	
2265000000	-26.0907615319962	-7.57673507167296	-2.41945796889817	-161.50343653819	-2.40446950062479	-161.191719412341	-26.8638408073252	-31.5249889868713	
2267500000	-28.1765056317642	22.5676090445703	-2.41524418031413	-174.533595546019	-2.40125181510986	-174.225092919971	-29.1810926844434	3.09477267772848	
2270000000	-25.5717804570072	49.8693688995593	-2.4212741511628	172.435005401467	-2.40716558107938	172.74406886864	-26.0150641070869	32.3811929263362	
2272500000	-22.2476238202789	55.8188784159286	-2.43598989981206	159.420938778123	-2.42181025120786	159.734592170927	-22.4367597245213	37.6413260735614	
2275000000	-19.8241579181416	52.3560614355607	-2.45639813380912	146.465298074501	-2.44334396907854	146.776499007491	-19.9133658919428	33.7238330388008	
2277500000	-18.1817636162862	45.2826746474725	-2.48084305127503	133.562711471171	-2.46765047143379	133.879268826783	-18.2234963644395	26.4720621521587	
2280000000	-17.1255535181049	36.5814792033121	-2.50322586961003	120.723799082487	-2.49060524043741	121.043491780315	-17.1387052119945	17.8428565537308	
2282500000	-16.5537750351832	27.1074435483777	-2.51850447460313	107.943269907196	-2.50521413472788	108.258317316965	-16.5320758804971	8.69638483199043	
2285000000	-16.4132016751288	17.3170069768355	-2.52456757431187	95.1921806714607	-2.5123330002675	95.5023805335433	-16.351843934967	-0.577563229227179	
2287500000	-16.6990942911026	7.52216723634886	-2.52140975118378	82.4302588320421	-2.50867294777955	82.7460006546267	-16.5689159799614	-9.64259712636809	
2290000000	-17.4498610825059	-2.02575007976175	-2.51099090570202	69.6462222040015	-2.49694709629668	69.9622569784898	-17.2140000585986	-18.1030423570707	
2292500000	-18.7574836207803	-10.7573636171218	-2.49243344645911	56.8093609703032	-2.4790028950842	57.1285658322684	-18.341826977802	-25.3630037395931	
2295000000	-20.8267307571624	-17.6174583506367	-2.47125786158895	43.9120609319092	-2.45857040068761	44.2296841642898	-20.0539672600102	-30.0066227471125	
2297500000	-24.0444595709228	-19.5376273437199	-2.45384037040312	30.933630474443	-2.44096121506995	31.2513437104229	-22.3994424659239	-29.0786423345188	
2300000000	-28.7104271974889	-3.57643050516845	-2.44406635345192	17.9086371405681	-2.43153087925092	18.2276373785236	-24.8934066565723	-16.070347760827	
2302500000	-29.1604081370266	46.4434985879232	-2.44481086519803	4.85249239531623	-2.43150669020564	5.16664010551166	-25.1957543404802	9.58474575097804	
2305000000	-24.2089326548995	66.6584538579259	-2.45823741320665	-8.2008275643374	-2.44459645655509	-7.8839270901185	-22.7071127725863	26.3532053964645	
2307500000	-20.573649787845	65.8074551701355	-2.48213788487681	-21.2221554969354	-2.46824511404	-20.9075616491188	-20.0141742246361	29.3768151045895	
2310000000	-18.1496350477396	59.171288083356	-2.51312381272299	-34.1743271690567	-2.49978697835027	-33.8677105403194	-17.9270217554692	25.5698989058899	
2312500000	-16.5090156802558	50.3850361127272	-2.54795765041043	-47.0501669160332	-2.53444759324722	-46.7410528183938	-16.4337291809948	18.706522939645	
2315000000	-15.4206400865998	40.7120068333199	-2.5800263701527	-59.838000543606	-2.56547616870417	-59.5266931915517	-15.4180167949163	10.3676334805236	
2317500000	-14.7782549577089	30.6523669145964	-2.60466567766693	-72.551160655733	-2.59058324291295	-72.2480027765374	-14.8103525804516	1.31519441063223	
2320000000	-14.5167501717147	20.4493474043589	-2.61783373103454	-85.2289797878832	-2.60177130387968	-84.9168692052536	-14.5594368407649	-8.05074743311268	
2322500000	-14.6096251974024	10.3065078658722	-2.61644670247895	-97.8813341359621	-2.60295518467929	-97.5782603021294	-14.6557997334868	-17.4958411475509	
2325000000	-15.0782972842943	0.358304097527622	-2.6039820909327	-110.560427424702	-2.59072777700394	-110.257851769605	-15.0988197096159	-26.7366994537477	
2327500000	-15.951934046939	-9.16674559081944	-2.58066702647603	-123.297248460074	-2.56690872340048	-123.004828127181	-15.9312638337552	-35.4492560838502	
2330000000	-17.3345424269002	-17.8085692736556	-2.5497643584528	-136.115029089381	-2.53782017583899	-135.81831670739	-17.2234768995612	-43.0312540824604	
2332500000	-19.4092265313917	-24.5676480885427	-2.52023457258925	-149.014838414253	-2.50626995979103	-148.72495425287	-19.0796224219249	-48.3016359580521	
2335000000	-22.46709257922	-26.5786840877082	-2.49464444960751	-162.0036559345	-2.48090402606032	-161.714426502271	-21.6088869420289	-48.3860400253867	
2337500000	-26.6810948600683	-13.933061031026	-2.47925746454114	-175.04684153105	-2.46465714319039	-174.761684805931	-24.4719886824269	-36.7234387632676	
2340000000	-28.1301490510772	28.2938971266577	-2.4756055932421	171.87967926037	-2.46082531772901	172.159516031708	-25.3118739986961	-10.1583641653185	
2342500000	-24.1067090006979	52.7258555428824	-2.48483127465776	158.815400245669	-2.46981512139896	159.093485131552	-22.979416973129	8.69126155301119	
2345000000	-20.6274869435157	54.7457824750082	-2.5048891075482	145.789016227718	-2.49061200900226	146.072482032904	-20.3151812311614	12.3247046434633	
2347500000	-18.2846933860488	49.6617538380768	-2.53123371985577	132.837581326719	-2.51729031731267	133.11895835546	-18.3031749466548	8.53490555418973	
2350000000	-16.7311668697038	42.1062906658878	-2.56142781749281	119.971976544321	-2.54524761264881	120.244114025826	-16.9183758917103	1.45653038923461	
2352500000	-15.7421416144899	33.5268857818007	-2.58548561124912	107.175746301014	-2.57029032195347	107.450063361588	-16.0598052139998	-7.25052731045152	
2355000000	-15.2085364153716	24.6751319874683	-2.60134428903295	94.4371128628901	-2.58788609299154	94.7079028554424	-15.6420428974701	-16.8002183682217	
2357500000	-15.0663871815602	15.8726727836736	-2.60740129310144	81.7265551555555	-2.59268030015427	81.9936459050458	-15.6338305949718	-26.828474796488	
2360000000	-15.2922771957343	7.45330764382768	-2.60011325586958	69.0105612055564	-2.5883056584061	69.2747236480136	-16.0415501854698	-37.1290982663319	
2362500000	-15.8962661547304	-0.155546103441181	-2.5853505530659	56.2563158957591	-2.5711536471131	56.509078618596	-16.9123516636558	-47.4858339844527	
2365000000	-16.8919484653076	-6.29279261130714	-2.56278781558083	43.4316171699186	-2.54826635913099	43.6872768866217	-18.3603566347912	-57.673130650784	
2367500000	-18.2970597291419	-9.81539332984793	-2.53837542702203	30.5379681508143	-2.52324154471387	30.7866060930969	-20.6387360638161	-67.1358341178893	
2370000000	-20.0335028193243	-8.60075969044074	-2.51775440043959	17.5629129461109	-2.5019975074217	17.8124074634388	-24.3435297383114	-74.2056980842912	
2372500000	-21.632905786506	0.0450463781940548	-2.50499034175016	4.53597952118787	-2.48975574188735	4.78586480834711	-31.4441409434788	-68.8296006829258	
2375000000	-22.0238840870706	14.9924021016386	-2.5021617466688	-8.51767349676719	-2.48792926155394	-8.27391638764679	-34.3549128467149	25.8430646536062	
2377500000	-20.8336388205351	27.0921382142719	-2.51152436599778	-21.5682794647367	-2.49762710868025	-21.3237793736565	-25.7213100388612	43.1501431223962	
2380000000	-19.0974670424658	31.351231677935	-2.53111334327783	-34.5743035495915	-2.51653483122636	-34.3346040912188	-21.4451851160574	37.3538685900361	
2382500000	-17.5396895128177	29.7912397498259	-2.55619554848905	-47.5228942223276	-2.54094226956931	-47.285002374846	-18.9060870590394	28.1429200113749	
2385000000	-16.3848444983453	24.934927973346	-2.58081553435617	-60.3891269657295	-2.56707615717324	-60.1562483960773	-17.3042625937589	17.9825188996293	
2387500000	-15.6396954702719	18.3189586596864	-2.60294669687767	-73.1885944126108	-2.5890021376436	-72.9578991559799	-16.3354860981723	7.4862147132558	
2390000000	-15.2804005008387	10.7774476679993	-2.61636707473988	-85.9355978228162	-2.6022514106845	-85.7059354025058	-15.8653495314445	-3.03392195479179	
2392500000	-15.2950735624175	2.93424864828132	-2.61929465814025	-98.6614873535418	-2.60579058095034	-98.4393875029085	-15.840503689551	-13.3866251110671	
2395000000	-15.6986014855835	-4.83512900087796	-2.61135741698924	-111.404081329185	-2.59729776606796	-111.186218331727	-16.2572996493084	-23.3712512782486	
2397500000	-16.5253619804193	-11.9393338521335	-2.59383961795102	-124.187143565034	-2.5798071873048	-123.974669060952	-17.166913992197	-32.641127885384	
2400000000	-17.8486894369099	-17.536978384106	-2.5705891159108	-137.047831318484	-2.5572359520626	-136.833357926589	-18.6676295164943	-40.5291593156502	
2402500000	-19.7537820712807	-19.8291887474409	-2.54833064159257	-149.975250561739	-2.5342705588834	-149.766814118114	-20.9706809449969	-45.3372063819206	
2405000000	-22.187777106163	-14.8669495053754	-2.53076478000575	-162.981427016696	-2.51741833530733	-162.778990353486	-24.3421841291859	-41.9146581326445	
2407500000	-24.1327594177382	3.40349555777223	-2.52392941261068	-176.040399190568	-2.51004236759756	-175.836915496299	-27.7148846937164	-15.6842211314724	
2410000000	-23.3219418320997	27.2903730335635	-2.52870940584823	170.885948981699	-2.51530414552552	171.077609145821	-25.7749034407662	21.0113158737024	
2412500000	-20.7348556086365	38.6053420662854	-2.54698615789725	157.821014899792	-2.53316925839608	158.018819594561	-21.8613618346987	31.2483727596229	
2415000000	-18.3680407813324	39.2390827372955	-2.57478917744633	144.815210111896	-2.56119024947493	145.017204891759	-18.9733122534061	28.8389150611143	
2417500000	-16.5904723027218	34.7861802534289	-2.60978141763431	131.892481996301	-2.596081937498	132.093921036965	-16.9924702387331	22.0573996648844	
2420000000	-15.351694559034	27.935395525134	-2.64442930402934	119.059194337116	-2.62976961826355	119.267149047714	-15.6658635211898	13.5240147718186	
2422500000	-14.5596910470517	19.9379210565097	-2.672218480729	106.312718900053	-2.65933942711271	106.510265471854	-14.8396052065036	4.19978892764029	
2425000000	-14.1627218779987	11.3329972444763	-2.68931754506493	93.6270402776769	-2.67701393659937	93.8192638985284	-14.428480531209	-5.3902470736177	
2427500000	-14.1340674613475	2.5287063282278	-2.69318406400151	80.9656326488449	-2.68115270870572	81.1542300764558	-14.4043403185943	-14.9948516588826	
2430000000	-14.4764291425091	-6.17120443920782	-2.68244421967489	68.2910146983193	-2.67191528938492	68.4774388725909	-14.758648853918	-24.3531041658077	
2432500000	-15.2226158821959	-14.4618483838139	-2.66079466142594	55.5638932643327	-2.64865934527829	55.7504179159309	-15.5297922202041	-33.1511092484986	
2435000000	-16.4399688018941	-21.7439753270944	-2.63160115539099	42.7597933080827	-2.61878402681578	42.946559367017	-16.7862599592202	-40.794060446772	
2437500000	-18.2473978941567	-26.8787935461437	-2.60050318089618	29.8606289986737	-2.58749938993664	30.0424265197102	-18.6408521256796	-46.0432445331441	
2440000000	-20.7868529102105	-27.1027923807893	-2.57432731177009	16.8679558314205	-2.5599079634832	17.0475718111982	-21.2198602618255	-45.8701547204211	
2442500000	-23.8422153178069	-15.4043765741878	-2.55663207282033	3.80719332203545	-2.54264080511573	3.9824928556502	-24.1531206857673	-32.8547849200628	
2445000000	-24.9367358782606	13.9586468140981	-2.55244488008667	-9.29675976311713	-2.53931442213909	-9.11636434916681	-24.7658873700771	-4.24422024096752	
2447500000	-22.3660145306531	35.6330634651555	-2.56350299584255	-22.3906092302518	-2.55167573072335	-22.2060755191377	-22.1042193509548	14.3184261315289	
2450000000	-19.4492461466	40.3943116029848	-2.58715065728978	-35.4303771913595	-2.57448498061949	-35.2452595809662	-19.3150867920346	17.3778172192931	
2452500000	-17.2648467340635	37.4079853444763	-2.61983786837395	-48.3849800721311	-2.60746188829013	-48.2002302784464	-17.2482024970755	13.2802302332628	
2455000000	-15.7551113349436	31.1782944011409	-2.65449712764192	-61.2460402430839	-2.64251407419594	-61.0762292863904	-15.8336596203783	6.185673901007	
2457500000	-14.774602635559	23.5035815862586	-2.68507032523554	-74.0209010783365	-2.67317621919272	-73.8511006714751	-14.9382086655037	-2.35190864258581	
2460000000	-14.2325640172859	15.2262985848131	-2.70515040838693	-86.7222303472348	-2.69335869284487	-86.5643020104659	-14.485262120351	-11.5596172716504	
2462500000	-14.0808103065599	6.77035452176669	-2.71223104615228	-99.3953687523352	-2.7007564093208	-99.2311959819845	-14.4322687692755	-21.0474734519492	
2465000000	-14.2999102298636	-1.49397030722706	-2.70625472902322	-112.068701842627	-2.69322626208817	-111.899947707311	-14.7761600850334	-30.5785237991066	
2467500000	-14.8992334972706	-9.21196032283847	-2.68706337884289	-124.78336104116	-2.67476741036481	-124.621497104776	-15.5514314427473	-39.8286415849665	
2470000000	-15.9182132223006	-15.7948605561774	-2.65945186291964	-137.575731445808	-2.64609547539974	-137.410568080778	-16.8504298833887	-48.3898928467308	
2472500000	-17.4151079879711	-20.1404095690147	-2.62771668446285	-150.470402426324	-2.61529278893716	-150.301743907124	-18.8281591584109	-55.2277718759084	
2475000000	-19.4011667448283	-20.0612434981666	-2.5994221373273	-163.450484209566	-2.58757596768048	-163.282959799501	-21.7965679479471	-57.7270227147901	
2477500000	-21.5605706151402	-11.5730996331014	-2.58072487846654	-176.500825459606	-2.56859471158005	-176.334118437037	-25.9940385724246	-46.5954311073566	
2480000000	-22.5431023654192	7.22272742732177	-2.57462884252405	170.396976419575	-2.56231684302533	170.577803752914	-27.8717171644302	-4.94496400641194	
2482500000	-21.2566026096304	24.7176824454194	-2.58460211253443	157.31755666813	-2.57095640220348	157.478229015531	-23.8661524077132	21.5386646681128	
2485000000	-19.1047983334887	31.5291188367283	-2.6045495419487	144.268951338058	-2.5930788079325	144.434787795845	-20.2907426258434	23.9181583482357	
2487500000	-17.2465460313798	30.7564022972992	-2.63313934592826	131.299451214777	-2.62096303355945	131.458930836484	-17.9100546257461	18.6837412044461	
2490000000	-15.8859683281572	26.2239324746337	-2.66381047711773	118.417515275415	-2.65203644067737	118.571242690981	-16.3625064228704	10.7031157670746	
2492500000	-14.9984072533852	19.8119150172215	-2.69087454280355	105.619204700092	-2.67789365068721	105.777294979956	-15.4245336397093	1.58737381564741	
2495000000	-14.5309884091091	12.532048757141	-2.70813904891052	92.8859245760612	-2.69524877195793	93.0418640039123	-14.9785880372302	-8.00831682219705	
2497500000	-14.4554291446003	5.0131515646691	-2.71327301614016	80.1867099562412	-2.70050248355381	80.3410037128797	-14.9723276646309	-17.7242009308982	
2500000000	-14.7593647361748	-2.30575610524087	-2.70487502232312	67.4710461066477	-2.69231019611716	67.6260825715615	-15.4091523183679	-27.2849307291076	
